.Version 9.10.3 of ABINIT

 ABINIT is a project of the Universite Catholique de Louvain,
 Corning Inc. and other collaborators, see ~abinit/doc/developers/contributors.txt .
 acknowledgments of the ABINIT effort.

.Starting date : Wed  7 May 2025.
- ( at 09h16 )

- input  file    -> mos2_ecut_k.abi
- output file    -> mos2_ecut_k.abo
- root for input  files -> mos2_ecut_ki
- root for output files -> mos2_ecut_ko

 DATASET   11 : space group P1 (#  1); Bravais aP (primitive triclinic)
     intxc =       0    ionmov =       2      iscf =       7    lmnmax =       6
     lnmax =       6     mgfft =     108  mpssoang =       3    mqgrid =    5381
     natom =       3  nloc_mem =       1    nspden =       1   nspinor =       1
    nsppol =       1      nsym =       1    n1xccc =    2501    ntypat =       2
    occopt =       1   xclevel =       2
-    mband =          14        mffmem =           1         mkmem =           2
       mpw =        1738          nfft =       34992          nkpt =           2
  Rough estimation (10% accuracy) of disk space for files :

[...]

 DATASET   63 : space group P1 (#  1); Bravais aP (primitive triclinic)
     intxc =       0    ionmov =       2      iscf =       7    lmnmax =       6
     lnmax =       6     mgfft =     216  mpssoang =       3    mqgrid =   10066
     natom =       3  nloc_mem =       1    nspden =       1   nspinor =       1
    nsppol =       1      nsym =       1    n1xccc =    2501    ntypat =       2
    occopt =       1   xclevel =       2
-    mband =          14        mffmem =           1         mkmem =          18
       mpw =       11518          nfft =      221184          nkpt =          18
  Rough estimation (10% accuracy) of disk space for files :

------------- Echo of variables that govern the present computation ------------
-
- outvars: echo of selected default values
-   iomode0 =  0 , fftalg0 =512 , wfoptalg0 =  0
-
- outvars: echo of global parameters not present in the input file
-  max_nthreads =    0
-
 -outvars: echo values of preprocessed input variables --------
            acell      5.9526373186E+00  5.9526373186E+00  3.7794522658E+01 Bohr
              amu      9.59400000E+01  3.20660000E+01
      chksymbreak           0
             ecut11    1.00000000E+01 Hartree
             ecut12    1.00000000E+01 Hartree
             ecut13    1.00000000E+01 Hartree
             ecut21    1.50000000E+01 Hartree
             ecut22    1.50000000E+01 Hartree
             ecut23    1.50000000E+01 Hartree
             ecut31    2.00000000E+01 Hartree
             ecut32    2.00000000E+01 Hartree
             ecut33    2.00000000E+01 Hartree
             ecut41    2.50000000E+01 Hartree
             ecut42    2.50000000E+01 Hartree
             ecut43    2.50000000E+01 Hartree
             ecut51    3.00000000E+01 Hartree
             ecut52    3.00000000E+01 Hartree
             ecut53    3.00000000E+01 Hartree
             ecut61    3.50000000E+01 Hartree
             ecut62    3.50000000E+01 Hartree
             ecut63    3.50000000E+01 Hartree
-          fftalg         512
           ionmov           2
              ixc          11
           jdtset       11   12   13   21   22   23   31   32   33   41
                        42   43   51   52   53   61   62   63
              kpt11    2.50000000E-01  2.50000000E-01  5.00000000E-01
                      -2.50000000E-01  2.50000000E-01  5.00000000E-01
              kpt12    1.25000000E-01  1.25000000E-01  5.00000000E-01
                       3.75000000E-01  1.25000000E-01  5.00000000E-01
                      -3.75000000E-01  1.25000000E-01  5.00000000E-01
                      -1.25000000E-01  1.25000000E-01  5.00000000E-01
                       1.25000000E-01  3.75000000E-01  5.00000000E-01
                       3.75000000E-01  3.75000000E-01  5.00000000E-01
                      -3.75000000E-01  3.75000000E-01  5.00000000E-01
                      -1.25000000E-01  3.75000000E-01  5.00000000E-01
              kpt13    8.33333333E-02  8.33333333E-02  5.00000000E-01
                       2.50000000E-01  8.33333333E-02  5.00000000E-01
                       4.16666667E-01  8.33333333E-02  5.00000000E-01
                      -4.16666667E-01  8.33333333E-02  5.00000000E-01
                      -2.50000000E-01  8.33333333E-02  5.00000000E-01
                      -8.33333333E-02  8.33333333E-02  5.00000000E-01
                       8.33333333E-02  2.50000000E-01  5.00000000E-01
                       2.50000000E-01  2.50000000E-01  5.00000000E-01
                       4.16666667E-01  2.50000000E-01  5.00000000E-01
                      -4.16666667E-01  2.50000000E-01  5.00000000E-01
                      -2.50000000E-01  2.50000000E-01  5.00000000E-01
                      -8.33333333E-02  2.50000000E-01  5.00000000E-01
                       8.33333333E-02  4.16666667E-01  5.00000000E-01
                       2.50000000E-01  4.16666667E-01  5.00000000E-01
                       4.16666667E-01  4.16666667E-01  5.00000000E-01
                      -4.16666667E-01  4.16666667E-01  5.00000000E-01
                      -2.50000000E-01  4.16666667E-01  5.00000000E-01
                      -8.33333333E-02  4.16666667E-01  5.00000000E-01
              kpt21    2.50000000E-01  2.50000000E-01  5.00000000E-01
                      -2.50000000E-01  2.50000000E-01  5.00000000E-01
              kpt22    1.25000000E-01  1.25000000E-01  5.00000000E-01
                       3.75000000E-01  1.25000000E-01  5.00000000E-01
                      -3.75000000E-01  1.25000000E-01  5.00000000E-01
                      -1.25000000E-01  1.25000000E-01  5.00000000E-01
                       1.25000000E-01  3.75000000E-01  5.00000000E-01
                       3.75000000E-01  3.75000000E-01  5.00000000E-01
                      -3.75000000E-01  3.75000000E-01  5.00000000E-01
                      -1.25000000E-01  3.75000000E-01  5.00000000E-01
              kpt23    8.33333333E-02  8.33333333E-02  5.00000000E-01
                       2.50000000E-01  8.33333333E-02  5.00000000E-01
                       4.16666667E-01  8.33333333E-02  5.00000000E-01
                      -4.16666667E-01  8.33333333E-02  5.00000000E-01
                      -2.50000000E-01  8.33333333E-02  5.00000000E-01
                      -8.33333333E-02  8.33333333E-02  5.00000000E-01
                       8.33333333E-02  2.50000000E-01  5.00000000E-01
                       2.50000000E-01  2.50000000E-01  5.00000000E-01
                       4.16666667E-01  2.50000000E-01  5.00000000E-01
                      -4.16666667E-01  2.50000000E-01  5.00000000E-01
                      -2.50000000E-01  2.50000000E-01  5.00000000E-01
                      -8.33333333E-02  2.50000000E-01  5.00000000E-01
                       8.33333333E-02  4.16666667E-01  5.00000000E-01
                       2.50000000E-01  4.16666667E-01  5.00000000E-01
                       4.16666667E-01  4.16666667E-01  5.00000000E-01
                      -4.16666667E-01  4.16666667E-01  5.00000000E-01
                      -2.50000000E-01  4.16666667E-01  5.00000000E-01
                      -8.33333333E-02  4.16666667E-01  5.00000000E-01
              kpt31    2.50000000E-01  2.50000000E-01  5.00000000E-01
                      -2.50000000E-01  2.50000000E-01  5.00000000E-01
              kpt32    1.25000000E-01  1.25000000E-01  5.00000000E-01
                       3.75000000E-01  1.25000000E-01  5.00000000E-01
                      -3.75000000E-01  1.25000000E-01  5.00000000E-01
                      -1.25000000E-01  1.25000000E-01  5.00000000E-01
                       1.25000000E-01  3.75000000E-01  5.00000000E-01
                       3.75000000E-01  3.75000000E-01  5.00000000E-01
                      -3.75000000E-01  3.75000000E-01  5.00000000E-01
                      -1.25000000E-01  3.75000000E-01  5.00000000E-01
              kpt33    8.33333333E-02  8.33333333E-02  5.00000000E-01
                       2.50000000E-01  8.33333333E-02  5.00000000E-01
                       4.16666667E-01  8.33333333E-02  5.00000000E-01
                      -4.16666667E-01  8.33333333E-02  5.00000000E-01
                      -2.50000000E-01  8.33333333E-02  5.00000000E-01
                      -8.33333333E-02  8.33333333E-02  5.00000000E-01
                       8.33333333E-02  2.50000000E-01  5.00000000E-01
                       2.50000000E-01  2.50000000E-01  5.00000000E-01
                       4.16666667E-01  2.50000000E-01  5.00000000E-01
                      -4.16666667E-01  2.50000000E-01  5.00000000E-01
                      -2.50000000E-01  2.50000000E-01  5.00000000E-01
                      -8.33333333E-02  2.50000000E-01  5.00000000E-01
                       8.33333333E-02  4.16666667E-01  5.00000000E-01
                       2.50000000E-01  4.16666667E-01  5.00000000E-01
                       4.16666667E-01  4.16666667E-01  5.00000000E-01
                      -4.16666667E-01  4.16666667E-01  5.00000000E-01
                      -2.50000000E-01  4.16666667E-01  5.00000000E-01
                      -8.33333333E-02  4.16666667E-01  5.00000000E-01
              kpt41    2.50000000E-01  2.50000000E-01  5.00000000E-01
                      -2.50000000E-01  2.50000000E-01  5.00000000E-01
              kpt42    1.25000000E-01  1.25000000E-01  5.00000000E-01
                       3.75000000E-01  1.25000000E-01  5.00000000E-01
                      -3.75000000E-01  1.25000000E-01  5.00000000E-01
                      -1.25000000E-01  1.25000000E-01  5.00000000E-01
                       1.25000000E-01  3.75000000E-01  5.00000000E-01
                       3.75000000E-01  3.75000000E-01  5.00000000E-01
                      -3.75000000E-01  3.75000000E-01  5.00000000E-01
                      -1.25000000E-01  3.75000000E-01  5.00000000E-01
              kpt43    8.33333333E-02  8.33333333E-02  5.00000000E-01
                       2.50000000E-01  8.33333333E-02  5.00000000E-01
                       4.16666667E-01  8.33333333E-02  5.00000000E-01
                      -4.16666667E-01  8.33333333E-02  5.00000000E-01
                      -2.50000000E-01  8.33333333E-02  5.00000000E-01
                      -8.33333333E-02  8.33333333E-02  5.00000000E-01
                       8.33333333E-02  2.50000000E-01  5.00000000E-01
                       2.50000000E-01  2.50000000E-01  5.00000000E-01
                       4.16666667E-01  2.50000000E-01  5.00000000E-01
                      -4.16666667E-01  2.50000000E-01  5.00000000E-01
                      -2.50000000E-01  2.50000000E-01  5.00000000E-01
                      -8.33333333E-02  2.50000000E-01  5.00000000E-01
                       8.33333333E-02  4.16666667E-01  5.00000000E-01
                       2.50000000E-01  4.16666667E-01  5.00000000E-01
                       4.16666667E-01  4.16666667E-01  5.00000000E-01
                      -4.16666667E-01  4.16666667E-01  5.00000000E-01
                      -2.50000000E-01  4.16666667E-01  5.00000000E-01
                      -8.33333333E-02  4.16666667E-01  5.00000000E-01
[...]
                       5.5041962138E-11 -5.7339244045E-10 -1.7356184571E-11
           strten41    9.8063337481E-05 -4.6230573697E-06  7.9778693593E-05
                       2.1343465147E-09  1.5152726079E-10 -8.2602396974E-12
           strten42    5.2822485623E-05  4.6793429991E-05  8.3433614699E-05
                       5.3140168291E-11 -7.6057916958E-10 -4.9895280938E-10
           strten43    4.9567728743E-05  5.0319395444E-05  8.3314506863E-05
                      -2.5749236855E-11  1.1238384542E-10 -1.9306199803E-10
           strten51    3.5608135226E-05 -6.7594632911E-05  1.8051017369E-05
                       2.3063159222E-09  6.2315632198E-10 -1.5673381812E-10
           strten52   -1.0065848318E-05 -1.5657059694E-05  2.0398929264E-05
                       3.4307861284E-10 -4.3357031100E-10 -2.8556864522E-11
           strten53   -1.3162712278E-05 -1.2187712754E-05  2.0558173891E-05
                      -7.5549652326E-11  4.7477241500E-11 -1.0196572397E-09
           strten61    1.8258021685E-05 -8.5325245853E-05 -2.4732381607E-07
                       3.3605753821E-09 -4.6977337360E-10 -1.6189655039E-10
           strten62   -2.8072651816E-05 -3.3693564722E-05 -2.7245663505E-07
                       4.0917647929E-10  4.5329576326E-10 -1.5857253962E-10
           strten63   -3.0589302026E-05 -2.9604800498E-05 -1.3561988689E-06
                      -5.6863917437E-11 -1.4143827226E-10  7.7542272899E-10
           toldff      5.00000000E-05
           tolmxf      5.00000000E-04
            typat      1  2  2
              wtk11      0.50000    0.50000
              wtk12      0.12500    0.12500    0.12500    0.12500    0.12500    0.12500
                         0.12500    0.12500
              wtk13      0.05556    0.05556    0.05556    0.05556    0.05556    0.05556
                         0.05556    0.05556    0.05556    0.05556    0.05556    0.05556
                         0.05556    0.05556    0.05556    0.05556    0.05556    0.05556
              wtk21      0.50000    0.50000
              wtk22      0.12500    0.12500    0.12500    0.12500    0.12500    0.12500
                         0.12500    0.12500
              wtk23      0.05556    0.05556    0.05556    0.05556    0.05556    0.05556
                         0.05556    0.05556    0.05556    0.05556    0.05556    0.05556
                         0.05556    0.05556    0.05556    0.05556    0.05556    0.05556
              wtk31      0.50000    0.50000
              wtk32      0.12500    0.12500    0.12500    0.12500    0.12500    0.12500
                         0.12500    0.12500
              wtk33      0.05556    0.05556    0.05556    0.05556    0.05556    0.05556
                         0.05556    0.05556    0.05556    0.05556    0.05556    0.05556
                         0.05556    0.05556    0.05556    0.05556    0.05556    0.05556
              wtk41      0.50000    0.50000
              wtk42      0.12500    0.12500    0.12500    0.12500    0.12500    0.12500
                         0.12500    0.12500
              wtk43      0.05556    0.05556    0.05556    0.05556    0.05556    0.05556
                         0.05556    0.05556    0.05556    0.05556    0.05556    0.05556
                         0.05556    0.05556    0.05556    0.05556    0.05556    0.05556
              wtk51      0.50000    0.50000
              wtk52      0.12500    0.12500    0.12500    0.12500    0.12500    0.12500
                         0.12500    0.12500
              wtk53      0.05556    0.05556    0.05556    0.05556    0.05556    0.05556
                         0.05556    0.05556    0.05556    0.05556    0.05556    0.05556
                         0.05556    0.05556    0.05556    0.05556    0.05556    0.05556
              wtk61      0.50000    0.50000
              wtk62      0.12500    0.12500    0.12500    0.12500    0.12500    0.12500
                         0.12500    0.12500
              wtk63      0.05556    0.05556    0.05556    0.05556    0.05556    0.05556
                         0.05556    0.05556    0.05556    0.05556    0.05556    0.05556
                         0.05556    0.05556    0.05556    0.05556    0.05556    0.05556
           xangst11    1.5750001830E+00  8.7063584679E-01  3.4108538413E-07
                       1.5749982456E+00 -8.8998096401E-01 -1.5788507251E+00
                       1.5750015713E+00 -8.8998155674E-01  1.5788503840E+00
           xangst12    1.5749998634E+00  9.1223459440E-01 -1.4173996360E-07
                       1.5750000989E+00 -9.1078072221E-01 -1.5933594966E+00
                       1.5750000377E+00 -9.1078054616E-01  1.5933596383E+00
           xangst13    1.5750000458E+00  9.0937680078E-01 -1.0352660593E-06
                       1.5750000045E+00 -9.0935171762E-01 -1.5919045626E+00
                       1.5749999497E+00 -9.0935175713E-01  1.5919055978E+00
           xangst21    1.5749998905E+00  8.6840350865E-01  2.0003629369E-07
                       1.5749999100E+00 -8.8886480104E-01 -1.5647643977E+00
                       1.5750001995E+00 -8.8886538157E-01  1.5647641976E+00
           xangst22    1.5750000453E+00  9.1156224499E-01  1.7395840080E-07
                       1.5750023143E+00 -9.1044446661E-01 -1.5764020375E+00
                       1.5749976403E+00 -9.1044445235E-01  1.5764018635E+00
           xangst23    1.5749998462E+00  9.0944128580E-01  3.1637716670E-08
                       1.5749999289E+00 -9.0938396592E-01 -1.5765850799E+00
                       1.5750002249E+00 -9.0938399385E-01  1.5765850483E+00
           xangst31    1.5749997502E+00  8.6834484568E-01 -3.8060545452E-06
                       1.5750004963E+00 -8.8883753884E-01 -1.5627488775E+00
                       1.5749997535E+00 -8.8883398081E-01  1.5627526836E+00
           xangst32    1.5750000235E+00  9.1135189523E-01  9.8036124022E-09
                       1.5749992078E+00 -9.1033921561E-01 -1.5757383340E+00
                       1.5750007687E+00 -9.1033935359E-01  1.5757383241E+00
           xangst33    1.5749999617E+00  9.0945309616E-01  8.1385077818E-07
                       1.5750006317E+00 -9.0938994209E-01 -1.5746197422E+00
                       1.5749994066E+00 -9.0938982804E-01  1.5746189283E+00
           xangst41    1.5750000767E+00  8.6796170163E-01 -3.5258336400E-06
                       1.5749997702E+00 -8.8864613851E-01 -1.5619905262E+00
                       1.5750001531E+00 -8.8864223709E-01  1.5619940520E+00
           xangst42    1.5750002721E+00  9.1124141923E-01  6.6571100459E-08
                       1.5750006910E+00 -9.1028410402E-01 -1.5753062803E+00
                       1.5749990369E+00 -9.1028398918E-01  1.5753062137E+00
           xangst43    1.5749999024E+00  9.0945382874E-01  8.2279018856E-07
                       1.5749999274E+00 -9.0939021524E-01 -1.5740753206E+00
                       1.5750001702E+00 -9.0939028747E-01  1.5740744978E+00
           xangst51    1.5750005343E+00  8.6841516605E-01 -1.4580939088E-05
                       1.5749990286E+00 -8.8887207721E-01 -1.5619492293E+00
                       1.5750004371E+00 -8.8886976281E-01  1.5619638102E+00
           xangst52    1.5750002088E+00  9.1126365491E-01  3.0400208163E-06
                       1.5750003330E+00 -9.1029549766E-01 -1.5752862198E+00
                       1.5749994583E+00 -9.1029483121E-01  1.5752831798E+00
           xangst53    1.5750000759E+00  9.0945237298E-01 -1.4091166102E-06
                       1.5749998993E+00 -9.0938947862E-01 -1.5741114520E+00
                       1.5750000249E+00 -9.0938956833E-01  1.5741128611E+00
           xangst61    1.5749996572E+00  8.6836671210E-01 -3.4735343158E-06
                       1.5750009422E+00 -8.8884990971E-01 -1.5616354601E+00
                       1.5749994006E+00 -8.8884347636E-01  1.5616389336E+00
           xangst62    1.5750001412E+00  9.1144104832E-01  1.7416252511E-06
                       1.5749994368E+00 -9.1038428794E-01 -1.5742496429E+00
                       1.5750004220E+00 -9.1038343435E-01  1.5742479012E+00
           xangst63    1.5749996314E+00  9.0945756376E-01 -1.7312963894E-07
                       1.5750003177E+00 -9.0939204786E-01 -1.5735695576E+00
                       1.5750000509E+00 -9.0939218987E-01  1.5735697307E+00
            xcart11    2.9763190052E+00  1.6452633119E+00  6.4455796394E-07
                       2.9763153440E+00 -1.6818202855E+00 -2.9835954751E+00
                       2.9763216287E+00 -1.6818214056E+00  2.9835948305E+00
            xcart12    2.9763184012E+00  1.7238735524E+00 -2.6784971328E-07
                       2.9763188462E+00 -1.7211261321E+00 -3.0110130797E+00
                       2.9763187305E+00 -1.7211257994E+00  3.0110133476E+00
            xcart13    2.9763187459E+00  1.7184731051E+00 -1.9563693267E-06
                       2.9763186678E+00 -1.7184257048E+00 -3.0082636529E+00
                       2.9763185642E+00 -1.7184257794E+00  3.0082656093E+00
            xcart21    2.9763184523E+00  1.6410448042E+00  3.7801381171E-07
                       2.9763184893E+00 -1.6797110431E+00 -2.9569761741E+00
                       2.9763190363E+00 -1.6797121402E+00  2.9569757961E+00
            xcart22    2.9763187450E+00  1.7226029961E+00  3.2873373602E-07
                       2.9763230328E+00 -1.7204907011E+00 -2.9789681261E+00
                       2.9763142002E+00 -1.7204906741E+00  2.9789677974E+00
            xcart23    2.9763183686E+00  1.7185949641E+00  5.9786619976E-08
                       2.9763185250E+00 -1.7184866452E+00 -2.9793140262E+00
                       2.9763190843E+00 -1.7184866980E+00  2.9793139664E+00
            xcart31    2.9763181872E+00  1.6409339472E+00 -7.1924007372E-06
                       2.9763195971E+00 -1.6796595250E+00 -2.9531673930E+00
                       2.9763181935E+00 -1.6796528013E+00  2.9531745854E+00
            xcart32    2.9763187037E+00  1.7222054927E+00  1.8526142553E-08
                       2.9763171623E+00 -1.7202918055E+00 -2.9777139083E+00
                       2.9763201119E+00 -1.7202920663E+00  2.9777138897E+00
            xcart33    2.9763185870E+00  1.7186172824E+00  1.5379550838E-06
                       2.9763198530E+00 -1.7184979385E+00 -2.9756000761E+00
                       2.9763175379E+00 -1.7184977230E+00  2.9755985382E+00
            xcart41    2.9763188043E+00  1.6402099099E+00 -6.6628599697E-06
                       2.9763182251E+00 -1.6792978308E+00 -2.9517343166E+00
                       2.9763189485E+00 -1.6792904582E+00  2.9517409795E+00
            xcart42    2.9763191735E+00  1.7219967233E+00  1.2580114823E-07
                       2.9763199651E+00 -1.7201876597E+00 -2.9768974452E+00
                       2.9763168393E+00 -1.7201874427E+00  2.9768973194E+00
            xcart43    2.9763184749E+00  1.7186186668E+00  1.5548481212E-06
                       2.9763185221E+00 -1.7184984547E+00 -2.9745712684E+00
                       2.9763189809E+00 -1.7184985912E+00  2.9745697135E+00
            xcart51    2.9763196689E+00  1.6410668335E+00 -2.7553981637E-05
                       2.9763168236E+00 -1.6797247931E+00 -2.9516562768E+00
                       2.9763194854E+00 -1.6797204195E+00  2.9516838308E+00
            xcart52    2.9763190538E+00  1.7220387426E+00  5.7448067811E-06
                       2.9763192885E+00 -1.7202091906E+00 -2.9768595363E+00
                       2.9763176356E+00 -1.7202079312E+00  2.9768537915E+00
            xcart53    2.9763188026E+00  1.7186159158E+00 -2.6628444826E-06
                       2.9763184690E+00 -1.7184970627E+00 -2.9746395470E+00
                       2.9763187063E+00 -1.7184972322E+00  2.9746422098E+00
            xcart61    2.9763180115E+00  1.6409752688E+00 -6.5640285700E-06
                       2.9763204398E+00 -1.6796829026E+00 -2.9510633390E+00
                       2.9763175266E+00 -1.6796707453E+00  2.9510699030E+00
            xcart62    2.9763189262E+00  1.7223739676E+00  3.2911947508E-06
                       2.9763175950E+00 -1.7203769799E+00 -2.9749006898E+00
                       2.9763194567E+00 -1.7203753668E+00  2.9748973986E+00
            xcart63    2.9763179628E+00  1.7186257250E+00 -3.2716760308E-07
                       2.9763192596E+00 -1.7185019179E+00 -2.9736155149E+00
                       2.9763187556E+00 -1.7185021862E+00  2.9736158421E+00
             xred11    3.4042487064E-01  6.5957524557E-01  1.7054269207E-08
                       6.6312031581E-01  3.3687857032E-01 -7.8942536254E-02
                       6.6312148022E-01  3.3687951745E-01  7.8942519199E-02
             xred12    3.3280030945E-01  6.6719960383E-01 -7.0869981798E-09
                       6.6693320446E-01  3.3306685834E-01 -7.9667974828E-02
                       6.6693315275E-01  3.3306687116E-01  7.9667981915E-02
             xred13    3.3332416036E-01  6.6667586875E-01 -5.1763302963E-08
                       6.6667125824E-01  3.3332874462E-01 -7.9595228128E-02
                       6.6667124807E-01  3.3332871996E-01  7.9595279891E-02
             xred21    3.4083393365E-01  6.5916599681E-01  1.0001814684E-08
                       6.6291626736E-01  3.3708367552E-01 -7.8238219884E-02
                       6.6291646566E-01  3.3708366101E-01  7.8238209882E-02
             xred22    3.3292359930E-01  6.6707642948E-01  8.6979200399E-09
                       6.6687227689E-01  3.3312919252E-01 -7.8820101873E-02
                       6.6687079047E-01  3.3312771133E-01  7.8820093175E-02
             xred23    3.3331227777E-01  6.6668762455E-01  1.5818858335E-09
                       6.6667714491E-01  3.3332280998E-01 -7.8829253995E-02
                       6.6667724398E-01  3.3332289881E-01  7.8829252413E-02
             xred31    3.4084464121E-01  6.5915520019E-01 -1.9030272726E-07
                       6.6291145670E-01  3.3708885840E-01 -7.8137443877E-02
                       6.6291056877E-01  3.3708927474E-01  7.8137634180E-02
             xred32    3.3296214649E-01  6.6703786842E-01  4.9018062011E-10
                       6.6685199969E-01  3.3314749735E-01 -7.8786916698E-02
                       6.6685252049E-01  3.3314796756E-01  7.8786916207E-02
             xred33    3.3331014980E-01  6.6668982591E-01  4.0692538909E-08
                       6.6667846335E-01  3.3332193772E-01 -7.8730987108E-02
                       6.6667805352E-01  3.3332156970E-01  7.8730946415E-02
             xred41    3.4091496973E-01  6.5908507899E-01 -1.7629168200E-07
                       6.6287614524E-01  3.3712370886E-01 -7.8099526308E-02
                       6.6287555170E-01  3.3712454548E-01  7.8099702600E-02
             xred42    3.3298247409E-01  6.6701769866E-01  3.3285550229E-09
                       6.6684236937E-01  3.3315806937E-01 -7.8765314015E-02
                       6.6684182320E-01  3.3315756530E-01  7.8765310686E-02
             xred43    3.3330999669E-01  6.6668994135E-01  4.1139509428E-08
                       6.6667828984E-01  3.3332166408E-01 -7.8703766028E-02
                       6.6667838014E-01  3.3332172791E-01  7.8703724888E-02
             xred51    3.4083200139E-01  6.5916833783E-01 -7.2904695442E-07
                       6.6291732115E-01  3.3708206207E-01 -7.8097461465E-02
                       6.6291734412E-01  3.3708293343E-01  7.8098190512E-02
             xred52    3.3297837850E-01  6.6702175404E-01  1.5200104082E-07
                       6.6684434400E-01  3.3315586741E-01 -7.8764310990E-02
                       6.6684394417E-01  3.3315571188E-01  7.8764158989E-02
             xred53    3.3331031857E-01  6.6668972959E-01 -7.0455830511E-08
                       6.6667814589E-01  3.3332179016E-01 -7.8705572601E-02
                       6.6667820220E-01  3.3332181358E-01  7.8705643057E-02
             xred61    3.4084060388E-01  6.5915917848E-01 -1.7367671579E-07
                       6.6291386566E-01  3.3708673255E-01 -7.8081773004E-02
                       6.6291219712E-01  3.3708742230E-01  7.8081946681E-02
             xred62    3.3294584338E-01  6.6705424630E-01  8.7081262557E-08
                       6.6686033349E-01  3.3313930891E-01 -7.8712482143E-02
                       6.6686048980E-01  3.3313977812E-01  7.8712395061E-02
             xred63    3.3330922608E-01  6.6669053989E-01 -8.6564819471E-09
                       6.6667874961E-01  3.3332145207E-01 -7.8678477881E-02
                       6.6667869097E-01  3.3332134137E-01  7.8678486537E-02
            znucl       42.00000   16.00000

- Timing analysis has been suppressed with timopt=0

 Suggested references for the acknowledgment of ABINIT usage.

 Calculation completed.
.Delivered  58 WARNINGs and  60 COMMENTs to log file.