.Version 9.10.3 of ABINIT

 ABINIT is a project of the Universite Catholique de Louvain,
 Corning Inc. and other collaborators, see ~abinit/doc/developers/contributors.txt .
 acknowledgments of the ABINIT effort.

.Starting date : Wed  7 May 2025.
- ( at 07h49 )

 === Build Information ===
  Version       : 9.10.3
  Build target  : x86_64_linux_intel2021.6
  Build date    : 20240126

 === Optimizations ===
  Debug level        : basic
  Optimization level : standard
  Architecture       : intel_xeon

 === Multicore ===
  Parallel build : /shared/ucl/apps/intel/2020/impi/2019.6.166/intel64
  Parallel I/O   :
  openMP support :
  GPU support    :

 === Connectors / Fallbacks ===
  LINALG flavor  : mkl
  FFT flavor     : dfti
  HDF5           : yes
  NetCDF         : yes
  NetCDF Fortran : yes
  Wannier90      : no

 === Experimental features ===
  Exports             :
  GW double-precision :

 Default optimizations:
   -O3

 Optimizations for 43_ptgroups:
   -O0

 CPP options activated during the build:

                  CC_INTEL                   CXX_GNU                  FC_INTEL

                 HAVE_DFTI HAVE_FC_ALLOCATABLE_DT...             HAVE_FC_ASYNC

  HAVE_FC_COMMAND_ARGUMENT      HAVE_FC_COMMAND_LINE        HAVE_FC_CONTIGUOUS

           HAVE_FC_CPUTIME              HAVE_FC_EXIT             HAVE_FC_FLUSH

             HAVE_FC_GAMMA   HAVE_FC_IEEE_ARITHMETIC   HAVE_FC_IEEE_EXCEPTIONS

             HAVE_FC_IOMSG     HAVE_FC_ISO_C_BINDING  HAVE_FC_ISO_FORTRAN_2008

        HAVE_FC_LONG_LINES        HAVE_FC_MOVE_ALLOC  HAVE_FC_ON_THE_FLY_SHAPE

           HAVE_FC_PRIVATE         HAVE_FC_PROTECTED           HAVE_FC_SHIFTLR

         HAVE_FC_STREAM_IO                 HAVE_HDF5             HAVE_HDF5_MPI

         HAVE_LINALG_AXPBY        HAVE_LINALG_GEMM3M         HAVE_LINALG_GEMMT

  HAVE_LINALG_MKL_IMATCOPY   HAVE_LINALG_MKL_OMATADD  HAVE_LINALG_MKL_OMATCOPY

                 HAVE_MPI2       HAVE_MPI_IALLGATHER       HAVE_MPI_IALLREDUCE

        HAVE_MPI_IALLTOALL       HAVE_MPI_IALLTOALLV           HAVE_MPI_IBCAST

         HAVE_MPI_IGATHERV        HAVE_MPI_INTEGER16               HAVE_MPI_IO

 HAVE_MPI_TYPE_CREATE_S...               HAVE_NETCDF       HAVE_NETCDF_FORTRAN

   HAVE_NETCDF_FORTRAN_MPI           HAVE_NETCDF_MPI             HAVE_OS_LINUX

         HAVE_TIMER_ABINIT

- input  file    -> mos2_k_draft.abi
- output file    -> mos2_k_draft.abo
- root for input  files -> mos2_k_drafti
- root for output files -> mos2_k_drafto

-instrng: 44 lines of input have been read from file mos2_k_draft.abi

 For atom type 1, psp file is ./persudo/Mo.psp8
 For atom type 2, psp file is ./persudo/S.psp8
  read the values zionpsp= 14.0 , pspcod=   8 , lmax=   2
  read the values zionpsp=  6.0 , pspcod=   8 , lmax=   2

 inpspheads: deduce mpsang = 3, n1xccc = 2501.

 invars1m : enter jdtset= 11

 symlatt: the Bravais lattice is hP (primitive hexagonal)
  xred   is defined in input file
 ingeo: takes atomic coordinates from input array xred

 symlatt: the Bravais lattice is hP (primitive hexagonal)

[...]

--- !COMMENT
src_file: m_symfind.F90
src_line: 995
message: |
    The Bravais lattice determined only from the primitive
    vectors, bravais(1)=  6, is more symmetric
    than the real one, iholohedry=  1, obtained by taking into
    account the atomic positions. Start deforming the primitive vector set.
...

 symlatt: the Bravais lattice is oC (one-face-centered orthorhombic)

--- !COMMENT
src_file: m_symfind.F90
src_line: 1004
message: |
    The Bravais lattice determined from modified primitive
    vectors, bravais(1)=  3, has a lower symmetry than before,
    but is still more symmetric than the real one, iholohedry=  1
    obtained by taking into account the atomic positions.
...

 symlatt: the Bravais lattice is aP (primitive triclinic)
 symspgr: spgroup=   1  P1   (=C1^1)

[...]

 symlatt: the Bravais lattice is aP (primitive triclinic)
 symspgr: spgroup=   1  P1   (=C1^1)

 invars1m : enter jdtset= 31

 symlatt: the Bravais lattice is hP (primitive hexagonal)
  xred   is defined in input file
 ingeo: takes atomic coordinates from input array xred

[...]

 symlatt: the Bravais lattice is hP (primitive hexagonal)

--- !COMMENT
src_file: m_symfind.F90
src_line: 995
message: |
    The Bravais lattice determined only from the primitive
    vectors, bravais(1)=  6, is more symmetric
    than the real one, iholohedry=  1, obtained by taking into
    account the atomic positions. Start deforming the primitive vector set.
...

 symlatt: the Bravais lattice is oC (one-face-centered orthorhombic)

--- !COMMENT
src_file: m_symfind.F90
src_line: 1004
message: |
    The Bravais lattice determined from modified primitive
    vectors, bravais(1)=  3, has a lower symmetry than before,
    but is still more symmetric than the real one, iholohedry=  1
    obtained by taking into account the atomic positions.
...

 symlatt: the Bravais lattice is aP (primitive triclinic)
 symspgr: spgroup=   1  P1   (=C1^1)
 invars2: take the default value of fband=  1.25000000E-01
 invars2: take the default value of fband=  1.25000000E-01
 invars2: take the default value of fband=  1.25000000E-01
 LMac pawujat is:            0
 LMac pawujat is:            0
 LMac pawujat is:            0
 For input ecut=  2.500000E+01 best grid ngfft=      30      30     180
       max ecut=  2.798318E+01

 ==== FFT mesh ====
  FFT mesh divisions ........................    30   30  180
  Augmented FFT divisions ...................    31   31  180
  FFT algorithm .............................   512
  FFT cache size ............................    16
 getmpw: optimal value of mpw= 6951
 For input ecut=  2.500000E+01 best grid ngfft=      30      30     180
       max ecut=  2.798318E+01

 ==== FFT mesh ====
  FFT mesh divisions ........................    30   30  180
  Augmented FFT divisions ...................    31   31  180
  FFT algorithm .............................   512
  FFT cache size ............................    16
 getmpw: optimal value of mpw= 6951
 For input ecut=  2.500000E+01 best grid ngfft=      30      30     180
       max ecut=  2.798318E+01

 ==== FFT mesh ====
  FFT mesh divisions ........................    30   30  180
  Augmented FFT divisions ...................    31   31  180
  FFT algorithm .............................   512
  FFT cache size ............................    16
 getmpw: optimal value of mpw= 6951

 DATASET   11 : space group P1 (#  1); Bravais aP (primitive triclinic)

 getdim_nloc: deduce lmnmax  =  18, lnmax  =   6,
                      lmnmaxso=  18, lnmaxso=   6.
     intxc =       0    ionmov =       2      iscf =       7    lmnmax =       6
     lnmax =       6     mgfft =     180  mpssoang =       3    mqgrid =    8507
     natom =       3  nloc_mem =       1    nspden =       1   nspinor =       1
    nsppol =       1      nsym =       1    n1xccc =    2501    ntypat =       2
    occopt =       1   xclevel =       2
-    mband =          14        mffmem =           1         mkmem =          14
       mpw =        6951          nfft =      162000          nkpt =          14
  Rough estimation (10% accuracy) of disk space for files :

 The job will continue.

[...]

 The job will continue.

 DATASET   31 : space group P1 (#  1); Bravais aP (primitive triclinic)

 getdim_nloc: deduce lmnmax  =  18, lnmax  =   6,
                      lmnmaxso=  18, lnmaxso=   6.
     intxc =       0    ionmov =       2      iscf =       7    lmnmax =       6
     lnmax =       6     mgfft =     180  mpssoang =       3    mqgrid =    8507
     natom =       3  nloc_mem =       1    nspden =       1   nspinor =       1
    nsppol =       1      nsym =       1    n1xccc =    2501    ntypat =       2
    occopt =       1   xclevel =       2
-    mband =          14        mffmem =           1         mkmem =          14
       mpw =        6951          nfft =      162000          nkpt =          14
  Rough estimation (10% accuracy) of disk space for files :

 The job will continue.
------------- Echo of variables that govern the present computation ------------
-
- outvars: echo of selected default values
-   iomode0 =  0 , fftalg0 =512 , wfoptalg0 =  0
-
- outvars: echo of global parameters not present in the input file
-  max_nthreads =    0
-
 -outvars: echo values of preprocessed input variables --------

 These variables are accessible in NetCDF format (mos2_k_drafto_OUT.nc)

            acell      5.9526373186E+00  5.9526373186E+00  3.7794522658E+01 Bohr
              amu      9.59400000E+01  3.20660000E+01
      chksymbreak           0
             ecut      2.50000000E+01 Hartree
-          fftalg         512
           getwfk          -1
           ionmov           2
           istwfk        2    0    0    0    0    0    0    0    0    0
                         0    0    0    0
              ixc          11
           jdtset       11   21   31
              kpt      0.00000000E+00  0.00000000E+00  0.00000000E+00
                       1.11111111E-01  1.11111111E-01  0.00000000E+00
                       3.33333333E-01  0.00000000E+00  0.00000000E+00
                       0.00000000E+00  3.33333333E-01  0.00000000E+00
                       2.22222222E-01  2.22222222E-01  0.00000000E+00
                       4.44444444E-01  1.11111111E-01  0.00000000E+00
                       1.11111111E-01  4.44444444E-01  0.00000000E+00
                       3.33333333E-01  3.33333333E-01  0.00000000E+00
                      -4.44444444E-01  2.22222222E-01  0.00000000E+00
                      -2.22222222E-01  1.11111111E-01  0.00000000E+00
                       2.22222222E-01 -4.44444444E-01  0.00000000E+00
                       4.44444444E-01  4.44444444E-01  0.00000000E+00
                      -3.33333333E-01  3.33333333E-01  0.00000000E+00
                      -1.11111111E-01  2.22222222E-01  0.00000000E+00
         kptrlatt        3   -3    0      3    6    0      0    0    1
          kptrlen      3.09308108E+01
P           mkmem          14
            natom           3
            nband          14
           ndtset           3
            ngfft          30      30     180
             nkpt          14
            nstep          10
             nsym           1
            ntime          10
           ntypat           2
              occ      2.000000  2.000000  2.000000  2.000000  2.000000  2.000000
                       2.000000  2.000000  2.000000  2.000000  2.000000  2.000000
                       2.000000  0.000000
        optforces           1
            rprim      5.0000000000E-01 -8.6602540378E-01  0.0000000000E+00
                       5.0000000000E-01  8.6602540378E-01  0.0000000000E+00
                       0.0000000000E+00  0.0000000000E+00  1.0000000000E+00
          spgroup           1
           toldff      5.00000000E-05
           tolmxf      5.00000000E-04
            typat      1  2  2
              wtk        0.03704    0.07407    0.07407    0.07407    0.07407    0.07407
                         0.07407    0.07407    0.07407    0.07407    0.07407    0.07407
                         0.07407    0.07407
[...]
 Evext_nl   = :     1.157460E+01 Ha ,    3.149609E+02 eV
 Epsp_core  = :     7.631172E-01 Ha ,    2.076547E+01 eV
 Ehartree   = :     1.341353E+02 Ha ,    3.650007E+03 eV
 Exc_ks     = :    -1.674548E+01 Ha ,   -4.556676E+02 eV
 Enn        = :     6.247543E+00 Ha ,    1.700043E+02 eV
 Etot       = :    -8.258228E+01 Ha ,   -2.247178E+03 eV

[...]

--- !ScfConvergenceWarning
message: |
    nstep 10 was not enough SCF cycles to converge.
...

 scprqt:  WARNING -
  nstep=   10 was not enough SCF cycles to converge;
  maximum force difference=  1.008E-01 exceeds toldff=  5.000E-05

 fftdatar_write: About to write data to: mos2_k_drafto_DS31_TIM10_DEN with iomode: IO_MODE_FORTRAN
 Integrated electronic density in atomic spheres:
 Atom  Sphere_radius  Integrated_density
    1        2.00000         12.47300534
    2        2.00000          2.82786754
    3        2.00000          2.50094347
 Write iteration in HIST netCDF file

---OUTPUT-----------------------------------------------------------------------

 Cartesian coordinates (xcart) [bohr]
  2.97299466552430E+00  1.69544595052932E+00  1.54009353431305E-01
  2.97830836894949E+00 -1.70530480829135E+00 -1.09833045602671E+01
  2.97765294341090E+00 -1.70851952136714E+00  1.08292952068358E+01
 Reduced coordinates (xred)
  3.34999157996266E-01  6.63884028197456E-01  4.07491198727643E-03
  6.65732909125184E-01  3.34935604526197E-01 -2.90605722414797E-01
  6.65934599545218E-01  3.34513700609689E-01  2.86530810427520E-01
 Cartesian forces (fcart) [Ha/bohr]; max,rms= 6.11725E-01 2.59359E-01 (free atoms)
 -1.89599290138629E-04 -6.87625732307360E-05  1.57381306850408E-01
  7.55117176941561E-04  7.00803208035627E-04  4.54343288163316E-01
 -5.65517886802932E-04 -6.32040634804891E-04 -6.11724595013724E-01
 Gradient of E wrt nuclear positions in reduced coordinates (gred)
  2.09827547629711E-04  9.18788262427623E-04 -5.94815136765819E+00
  1.36526589845317E-03 -5.86020458582367E-03 -1.71716876988682E+01
 -1.57509344608288E-03  4.94141632339604E-03  2.31198390665264E+01
 Total energy (etotal) [Ha]= -8.25822813053065E+01

 Difference of energy with previous step (new-old):
           Absolute (Ha)= 8.56469E+00
           Relative     = 9.85982E-02

[...]

--- !RelaxConvergenceWarning
message: |

     fconv : WARNING -
      ntime=   10 was not enough Broyd/MD steps to converge gradients:
      max grad (force/stress) = 6.1172E-01 > tolmxf= 5.0000E-04 ha/bohr (free atoms)

...

 ----iterations are completed or convergence reached----

 Mean square residual over all n,k,spin=   13.133E-05; max=  57.434E-04
   0.0000  0.0000  0.0000    1  1.32098E-03 kpt; spin; max resid(k); each band:
  2.50E-06 1.33E-06 1.18E-06 1.11E-06 8.00E-07 8.88E-07 5.92E-06 3.36E-05
  1.45E-05 3.39E-05 3.21E-05 2.68E-04 1.32E-03 2.87E-04
   0.1111  0.1111  0.0000    1  1.46273E-03 kpt; spin; max resid(k); each band:
  2.43E-06 3.98E-07 6.22E-07 3.78E-07 9.31E-07 9.00E-07 5.28E-06 2.35E-05
  4.02E-05 5.01E-05 2.53E-05 3.40E-05 1.46E-03 9.71E-05
   0.3333  0.0000  0.0000    1  4.77626E-04 kpt; spin; max resid(k); each band:
  2.17E-06 1.01E-06 1.76E-06 5.81E-07 9.02E-07 1.06E-06 3.51E-06 5.14E-06
  4.78E-04 2.39E-06 1.28E-04 2.34E-05 7.29E-05 1.76E-04
   0.0000  0.3333  0.0000    1  7.46796E-04 kpt; spin; max resid(k); each band:
  1.28E-06 2.92E-07 1.78E-06 1.28E-06 8.63E-07 1.10E-06 3.06E-06 5.78E-06
  5.16E-05 3.16E-06 2.35E-05 1.16E-05 8.42E-06 7.47E-04
   0.2222  0.2222  0.0000    1  4.48166E-04 kpt; spin; max resid(k); each band:
  1.70E-06 7.35E-07 9.63E-07 1.73E-07 8.45E-07 9.95E-07 3.24E-06 1.62E-05
  2.02E-05 1.56E-04 5.23E-06 5.47E-05 2.90E-04 4.48E-04
   0.4444  0.1111  0.0000    1  1.71124E-03 kpt; spin; max resid(k); each band:
  1.75E-06 1.41E-06 1.49E-06 5.72E-07 4.68E-07 7.53E-07 4.49E-06 1.29E-03
  2.97E-05 1.26E-05 6.70E-06 1.71E-03 2.39E-04 3.90E-04
   0.1111  0.4444  0.0000    1  1.82829E-04 kpt; spin; max resid(k); each band:
  2.01E-06 3.73E-07 1.61E-06 1.36E-06 4.33E-07 6.55E-07 2.16E-06 2.03E-06
  3.86E-06 2.52E-06 1.04E-05 1.68E-04 1.73E-05 1.83E-04
   0.3333  0.3333  0.0000    1  5.74343E-03 kpt; spin; max resid(k); each band:
  1.54E-06 8.16E-07 1.63E-06 1.28E-06 3.85E-07 6.32E-07 3.10E-06 7.25E-06
  5.45E-06 4.95E-06 3.24E-05 8.97E-05 1.31E-05 5.74E-03
  -0.4444  0.2222  0.0000    1  2.58236E-04 kpt; spin; max resid(k); each band:
  2.16E-06 9.10E-07 1.63E-06 1.31E-06 6.81E-07 9.97E-07 4.88E-06 2.51E-05
  7.23E-06 2.73E-05 5.49E-05 3.25E-05 1.19E-04 2.58E-04
  -0.2222  0.1111  0.0000    1  9.05814E-04 kpt; spin; max resid(k); each band:
  2.33E-06 4.12E-07 1.51E-06 1.23E-06 9.62E-07 1.03E-06 5.83E-06 2.62E-06
  2.41E-05 3.65E-05 1.64E-05 2.12E-05 9.06E-04 2.46E-04
   0.2222 -0.4444  0.0000    1  5.81374E-04 kpt; spin; max resid(k); each band:
  1.40E-06 3.20E-07 2.90E-07 3.78E-07 6.62E-07 9.60E-07 1.62E-06 1.22E-05
  7.11E-06 9.53E-05 6.68E-06 1.30E-04 5.81E-04 1.36E-04
   0.4444  0.4444  0.0000    1  6.53554E-04 kpt; spin; max resid(k); each band:
  1.49E-06 7.43E-07 6.45E-07 9.47E-07 4.30E-07 7.10E-07 3.42E-06 4.83E-04
  4.89E-05 3.30E-05 1.43E-05 6.54E-04 1.60E-04 5.59E-04
  -0.3333  0.3333  0.0000    1  1.08949E-03 kpt; spin; max resid(k); each band:
  1.80E-06 5.15E-07 1.23E-06 9.62E-07 7.68E-07 9.94E-07 3.84E-06 9.11E-06
  5.22E-05 4.40E-06 3.60E-06 2.22E-05 1.09E-03 3.31E-05
  -0.1111  0.2222  0.0000    1  1.93910E-03 kpt; spin; max resid(k); each band:
  2.42E-06 3.64E-07 1.18E-06 1.18E-06 6.52E-07 1.12E-06 6.27E-06 7.43E-06
  3.42E-05 4.98E-05 2.79E-05 2.49E-05 1.94E-03 1.19E-03

   outwf: writing wavefunctions to: mos2_k_drafto_DS31_WFK with iomode: IO_MODE_FORTRAN_MASTER
 prteigrs : about to open file mos2_k_drafto_DS31_EIG
 Fermi (or HOMO) energy (hartree) =  -0.12061   Average Vxc (hartree)=  -0.19748
 Eigenvalues (hartree) for nkpt=  14  k points:
 kpt#   1, nband= 14, wtk=  0.03704, kpt=  0.0000  0.0000  0.0000 (reduced coord)
  -2.43663   -1.48032   -1.46761   -1.46443   -0.56969   -0.56533   -0.29341   -0.18677
  -0.17790   -0.17642   -0.17590   -0.16771   -0.12061   -0.08513
 kpt#   2, nband= 14, wtk=  0.07407, kpt=  0.1111  0.1111  0.0000 (reduced coord)
  -2.43619   -1.47998   -1.46920   -1.46726   -0.55309   -0.54957   -0.25879   -0.19313
  -0.17419   -0.16507   -0.16214   -0.14824   -0.14705   -0.11912
 kpt#   3, nband= 14, wtk=  0.07407, kpt=  0.3333  0.0000  0.0000 (reduced coord)
  -2.43557   -1.47973   -1.47444   -1.46738   -0.52595   -0.52398   -0.24384   -0.20243
  -0.19540   -0.19188   -0.15930   -0.14547   -0.14062   -0.12992
 kpt#   4, nband= 14, wtk=  0.07407, kpt=  0.0000  0.3333  0.0000 (reduced coord)
  -2.43557   -1.47935   -1.47295   -1.46927   -0.52586   -0.52421   -0.24460   -0.20369
  -0.19457   -0.18941   -0.15917   -0.14569   -0.14080   -0.12776
 kpt#   5, nband= 14, wtk=  0.07407, kpt=  0.2222  0.2222  0.0000 (reduced coord)
  -2.43540   -1.47934   -1.47345   -1.47070   -0.51495   -0.51399   -0.20951   -0.20586
  -0.19648   -0.19304   -0.19230   -0.14937   -0.13709   -0.13067
 kpt#   6, nband= 14, wtk=  0.07407, kpt=  0.4444  0.1111  0.0000 (reduced coord)
  -2.43523   -1.47997   -1.47618   -1.46895   -0.50303   -0.50291   -0.24280   -0.24137
  -0.23031   -0.20476   -0.14647   -0.13295   -0.12196   -0.11302
 kpt#   7, nband= 14, wtk=  0.07407, kpt=  0.1111  0.4444  0.0000 (reduced coord)
  -2.43523   -1.47903   -1.47535   -1.47074   -0.50327   -0.50289   -0.24451   -0.24199
  -0.22776   -0.20394   -0.14774   -0.14393   -0.12187   -0.11590
 kpt#   8, nband= 14, wtk=  0.07407, kpt=  0.3333  0.3333  0.0000 (reduced coord)
  -2.43512   -1.47937   -1.47485   -1.47222   -0.49575   -0.49504   -0.20366   -0.19264
  -0.18940   -0.18831   -0.18779   -0.18594   -0.18308   -0.17979
 kpt#   9, nband= 14, wtk=  0.07407, kpt= -0.4444  0.2222  0.0000 (reduced coord)
  -2.43539   -1.47974   -1.47541   -1.46835   -0.51500   -0.51374   -0.20925   -0.20510
  -0.19621   -0.19557   -0.19348   -0.14998   -0.14669   -0.12629
 kpt#  10, nband= 14, wtk=  0.07407, kpt= -0.2222  0.1111  0.0000 (reduced coord)
  -2.43619   -1.48003   -1.47093   -1.46548   -0.55311   -0.54949   -0.25822   -0.19292
  -0.17452   -0.16546   -0.16336   -0.15191   -0.14892   -0.11559
 kpt#  11, nband= 14, wtk=  0.07407, kpt=  0.2222 -0.4444  0.0000 (reduced coord)
  -2.43540   -1.47931   -1.47466   -1.46954   -0.51493   -0.51394   -0.20930   -0.20628
  -0.19593   -0.19357   -0.19292   -0.14990   -0.14484   -0.12843
 kpt#  12, nband= 14, wtk=  0.07407, kpt=  0.4444  0.4444  0.0000 (reduced coord)
  -2.43522   -1.48005   -1.47691   -1.46816   -0.50299   -0.50283   -0.24345   -0.24030
  -0.23082   -0.20551   -0.14566   -0.14209   -0.12201   -0.11166
 kpt#  13, nband= 14, wtk=  0.07407, kpt= -0.3333  0.3333  0.0000 (reduced coord)
  -2.43557   -1.47971   -1.47523   -1.46663   -0.52592   -0.52392   -0.24258   -0.20303
  -0.19610   -0.19236   -0.16080   -0.14570   -0.14072   -0.13161
 kpt#  14, nband= 14, wtk=  0.07407, kpt= -0.1111  0.2222  0.0000 (reduced coord)
  -2.43619   -1.47997   -1.47007   -1.46641   -0.55308   -0.54955   -0.25846   -0.19288
  -0.17431   -0.16521   -0.16259   -0.14919   -0.14754   -0.11925
 Total charge density [el/Bohr^3]
)     Maximum=    1.0626E+00  at reduced coord.    0.3333    0.6667    0.0278
)Next maximum=    1.0520E+00  at reduced coord.    0.3667    0.6667    0.0278
)     Minimum=    2.4121E-07  at reduced coord.    0.5333    0.5333    0.4833
)Next minimum=    2.4248E-07  at reduced coord.    0.5333    0.5000    0.4833
   Integrated=    2.6000E+01

 Cartesian components of stress tensor (hartree/bohr^3)
  sigma(1 1)= -8.36564152E-03  sigma(3 2)= -3.12845494E-05
  sigma(2 2)= -8.26566579E-03  sigma(3 1)=  2.60686660E-05
  sigma(3 3)=  4.55984518E-03  sigma(2 1)= -2.44347942E-05

-Cartesian components of stress tensor (GPa)         [Pressure=  1.1838E+02 GPa]
- sigma(1 1)= -2.46125629E+02  sigma(3 2)= -9.20423064E-01
- sigma(2 2)= -2.43184243E+02  sigma(3 1)=  7.66966504E-01
- sigma(3 3)=  1.34155254E+02  sigma(2 1)= -7.18896345E-01

== END DATASET(S) ==============================================================

 -outvars: echo values of variables after computation  --------

 These variables are accessible in NetCDF format (mos2_k_drafto_OUT.nc)

            acell      5.9526373186E+00  5.9526373186E+00  3.7794522658E+01 Bohr
              amu      9.59400000E+01  3.20660000E+01
      chksymbreak           0
             ecut      2.50000000E+01 Hartree
           etotal11   -9.2365236474E+01
           etotal21   -9.2348637846E+01
           etotal31   -8.2582281305E+01
            fcart11   -6.7801795469E-07  9.9350012717E-07  1.5770199652E-05
                       3.7193654008E-07  8.5886072911E-08  3.0408480499E-04
                       3.0608141461E-07 -1.0793862001E-06 -3.1985500464E-04
            fcart21    2.9747028542E-06 -2.5101026858E-05  1.2721749654E-04
                      -7.2444726428E-06  9.0052928345E-06  4.8456755195E-02
                       4.2697697885E-06  1.6095734024E-05 -4.8583972691E-02
            fcart31   -1.8959929014E-04 -6.8762573231E-05  1.5738130685E-01
                       7.5511717694E-04  7.0080320804E-04  4.5434328816E-01
                      -5.6551788680E-04 -6.3204063480E-04 -6.1172459501E-01
-          fftalg         512
           getwfk          -1
           ionmov           2
           istwfk        2    0    0    0    0    0    0    0    0    0
                         0    0    0    0
              ixc          11
           jdtset       11   21   31
              kpt      0.00000000E+00  0.00000000E+00  0.00000000E+00
                       1.11111111E-01  1.11111111E-01  0.00000000E+00
                       3.33333333E-01  0.00000000E+00  0.00000000E+00
                       0.00000000E+00  3.33333333E-01  0.00000000E+00
                       2.22222222E-01  2.22222222E-01  0.00000000E+00
                       4.44444444E-01  1.11111111E-01  0.00000000E+00
                       1.11111111E-01  4.44444444E-01  0.00000000E+00
                       3.33333333E-01  3.33333333E-01  0.00000000E+00
                      -4.44444444E-01  2.22222222E-01  0.00000000E+00
                      -2.22222222E-01  1.11111111E-01  0.00000000E+00
                       2.22222222E-01 -4.44444444E-01  0.00000000E+00
                       4.44444444E-01  4.44444444E-01  0.00000000E+00
                      -3.33333333E-01  3.33333333E-01  0.00000000E+00
                      -1.11111111E-01  2.22222222E-01  0.00000000E+00
         kptrlatt        3   -3    0      3    6    0      0    0    1
          kptrlen      3.09308108E+01
P           mkmem          14
            natom           3
            nband          14
           ndtset           3
            ngfft          30      30     180
             nkpt          14
            nstep          10
             nsym           1
            ntime          10
           ntypat           2
              occ      2.000000  2.000000  2.000000  2.000000  2.000000  2.000000
                       2.000000  2.000000  2.000000  2.000000  2.000000  2.000000
                       2.000000  0.000000
        optforces           1
            rprim      5.0000000000E-01 -8.6602540378E-01  0.0000000000E+00
                       5.0000000000E-01  8.6602540378E-01  0.0000000000E+00
                       0.0000000000E+00  0.0000000000E+00  1.0000000000E+00
          spgroup           1
           strten11    5.2073917181E-05  5.2071683999E-05  8.3363336140E-05
                       4.1286099318E-09  1.7225704188E-10 -4.1094250789E-12
           strten21    1.3249175942E-04  1.3242747993E-04  3.5653044993E-04
                      -1.9820041927E-08 -3.1758175145E-08  2.5179942818E-09
           strten31   -8.3656415165E-03 -8.2656657927E-03  4.5598451783E-03
                      -3.1284549352E-05  2.6068665993E-05 -2.4434794218E-05
           toldff      5.00000000E-05
           tolmxf      5.00000000E-04
            typat      1  2  2
              wtk        0.03704    0.07407    0.07407    0.07407    0.07407    0.07407
                         0.07407    0.07407    0.07407    0.07407    0.07407    0.07407
                         0.07407    0.07407
           xangst11    1.5750011936E+00  9.0932490216E-01 -2.6540549206E-05
                       1.5749992062E+00 -9.0933023578E-01 -1.5766032400E+00
                       1.5749996002E+00 -9.0932134035E-01  1.5766297805E+00
           xangst21    1.5749991962E+00  9.0938755543E-01 -1.8899434465E-04
                       1.5750496851E+00 -9.0932595161E-01 -1.7437018522E+00
                       1.5749511187E+00 -9.0938827780E-01  1.7438908465E+00
           xangst31    1.5732410183E+00  8.9719135542E-01  8.1498239746E-02
                       1.5760529090E+00 -9.0240843825E-01 -5.8121144483E+00
                       1.5757060727E+00 -9.0410959114E-01  5.7306162086E+00
            xcart11    2.9763209149E+00  1.7183750309E+00 -5.0154369416E-05
                       2.9763171593E+00 -1.7183851100E+00 -2.9793483438E+00
                       2.9763179037E+00 -1.7183683000E+00  2.9793984982E+00
            xcart21    2.9763171403E+00  1.7184934284E+00 -3.5714755205E-04
                       2.9764125506E+00 -1.7183770141E+00 -3.2951189580E+00
                       2.9762262870E+00 -1.7184947935E+00  3.2954761055E+00
            xcart31    2.9729946655E+00  1.6954459505E+00  1.5400935343E-01
                       2.9783083689E+00 -1.7053048083E+00 -1.0983304560E+01
                       2.9776529434E+00 -1.7085195214E+00  1.0829295207E+01
             xred11    3.3333403700E-01  6.6666672084E-01 -1.3270274603E-06
                       6.6666706750E-01  3.3333242851E-01 -7.8830161999E-02
                       6.6666556216E-01  3.3333418398E-01  7.8831489027E-02
             xred21    3.3332191944E-01  6.6667757019E-01 -9.4497172325E-06
                       6.6668230732E-01  3.3334923878E-01 -8.7185092608E-02
                       6.6666243990E-01  3.3330652436E-01  8.7194542325E-02
             xred31    3.3499915800E-01  6.6388402820E-01  4.0749119873E-03
                       6.6573290913E-01  3.3493560453E-01 -2.9060572241E-01
                       6.6593459955E-01  3.3451370061E-01  2.8653081043E-01
            znucl       42.00000   16.00000

 Calculation completed.
.Delivered  29 WARNINGs and  11 COMMENTs to log file.

--- !FinalSummary
program: abinit
version: 9.10.3
start_datetime: Wed May 07 07:49:37 2025
end_datetime: Wed May 07 08:05:05 2025
overall_cpu_time:         913.9
overall_wall_time:         927.8
exit_requested_by_user: no
timelimit: 0
pseudos:
    Mo  : 228091cb5782e08cb8d68936b3c7e57b
    S   : ee4b2e2802f5df21cf2ecc26b1029f69
usepaw: 0
mpi_procs: 1
omp_threads: 1
num_warnings: 29
num_comments: 11
...