.Version 9.10.3 of ABINIT

 ABINIT is a project of the Universite Catholique de Louvain,
 Corning Inc. and other collaborators, see ~abinit/doc/developers/contributors.txt .
 acknowledgments of the ABINIT effort.

.Starting date : Wed  7 May 2025.
- ( at 06h34 )

 === Build Information ===
  Version       : 9.10.3
  Build target  : x86_64_linux_intel2021.6
  Build date    : 20240126

 === Optimizations ===
  Debug level        : basic
  Optimization level : standard
  Architecture       : intel_xeon

 === Multicore ===
  Parallel build : /shared/ucl/apps/intel/2020/impi/2019.6.166/intel64
  Parallel I/O   :
  openMP support :
  GPU support    :

 === Connectors / Fallbacks ===
  LINALG flavor  : mkl
  FFT flavor     : dfti
  HDF5           : yes
  NetCDF         : yes
  NetCDF Fortran : yes
  Wannier90      : no

 === Experimental features ===
  Exports             :
  GW double-precision :

 Default optimizations:
   -O3

 Optimizations for 43_ptgroups:
   -O0

 CPP options activated during the build:

                  CC_INTEL                   CXX_GNU                  FC_INTEL

                 HAVE_DFTI HAVE_FC_ALLOCATABLE_DT...             HAVE_FC_ASYNC

  HAVE_FC_COMMAND_ARGUMENT      HAVE_FC_COMMAND_LINE        HAVE_FC_CONTIGUOUS

           HAVE_FC_CPUTIME              HAVE_FC_EXIT             HAVE_FC_FLUSH

             HAVE_FC_GAMMA   HAVE_FC_IEEE_ARITHMETIC   HAVE_FC_IEEE_EXCEPTIONS

             HAVE_FC_IOMSG     HAVE_FC_ISO_C_BINDING  HAVE_FC_ISO_FORTRAN_2008

        HAVE_FC_LONG_LINES        HAVE_FC_MOVE_ALLOC  HAVE_FC_ON_THE_FLY_SHAPE

           HAVE_FC_PRIVATE         HAVE_FC_PROTECTED           HAVE_FC_SHIFTLR

         HAVE_FC_STREAM_IO                 HAVE_HDF5             HAVE_HDF5_MPI

         HAVE_LINALG_AXPBY        HAVE_LINALG_GEMM3M         HAVE_LINALG_GEMMT

  HAVE_LINALG_MKL_IMATCOPY   HAVE_LINALG_MKL_OMATADD  HAVE_LINALG_MKL_OMATCOPY

                 HAVE_MPI2       HAVE_MPI_IALLGATHER       HAVE_MPI_IALLREDUCE

        HAVE_MPI_IALLTOALL       HAVE_MPI_IALLTOALLV           HAVE_MPI_IBCAST

         HAVE_MPI_IGATHERV        HAVE_MPI_INTEGER16               HAVE_MPI_IO

 HAVE_MPI_TYPE_CREATE_S...               HAVE_NETCDF       HAVE_NETCDF_FORTRAN

   HAVE_NETCDF_FORTRAN_MPI           HAVE_NETCDF_MPI             HAVE_OS_LINUX

         HAVE_TIMER_ABINIT

- input  file    -> mos2_ecut.abi
- output file    -> mos2_ecut.abo
- root for input  files -> mos2_ecuti
- root for output files -> mos2_ecuto

-instrng: 42 lines of input have been read from file mos2_ecut.abi

 For atom type 1, psp file is ./persudo/Mo.psp8
 For atom type 2, psp file is ./persudo/S.psp8
  read the values zionpsp= 14.0 , pspcod=   8 , lmax=   2
  read the values zionpsp=  6.0 , pspcod=   8 , lmax=   2

 inpspheads: deduce mpsang = 3, n1xccc = 2501.

 invars1m : enter jdtset= 1

 symlatt: the Bravais lattice is hP (primitive hexagonal)
  xred   is defined in input file
 ingeo: takes atomic coordinates from input array xred

 symlatt: the Bravais lattice is hP (primitive hexagonal)

 symlatt: the Bravais lattice is hP (primitive hexagonal)

--- !COMMENT
src_file: m_symfind.F90
src_line: 995
message: |
    The Bravais lattice determined only from the primitive
    vectors, bravais(1)=  6, is more symmetric
    than the real one, iholohedry=  1, obtained by taking into
    account the atomic positions. Start deforming the primitive vector set.
...

 symlatt: the Bravais lattice is oC (one-face-centered orthorhombic)

--- !COMMENT
src_file: m_symfind.F90
src_line: 1004
message: |
    The Bravais lattice determined from modified primitive
    vectors, bravais(1)=  3, has a lower symmetry than before,
    but is still more symmetric than the real one, iholohedry=  1
    obtained by taking into account the atomic positions.
...

 symlatt: the Bravais lattice is aP (primitive triclinic)
 symspgr: spgroup=   1  P1   (=C1^1)
 invars2: take the default value of fband=  1.25000000E-01
 LMac pawujat is:            0
 For input ecut=  1.000000E+01 best grid ngfft=      18      18     108
       max ecut=  1.007394E+01

 ==== FFT mesh ====
  FFT mesh divisions ........................    18   18  108
  Augmented FFT divisions ...................    19   19  108
  FFT algorithm .............................   512
  FFT cache size ............................    16
 getmpw: optimal value of mpw= 1762

 DATASET    1 : space group P1 (#  1); Bravais aP (primitive triclinic)

 getdim_nloc: deduce lmnmax  =  18, lnmax  =   6,
                      lmnmaxso=  18, lnmaxso=   6.
     intxc =       0    ionmov =       2      iscf =       7    lmnmax =       6
     lnmax =       6     mgfft =     108  mpssoang =       3    mqgrid =    5381
     natom =       3  nloc_mem =       1    nspden =       1   nspinor =       1
    nsppol =       1      nsym =       1    n1xccc =    2501    ntypat =       2
    occopt =       1   xclevel =       2
-    mband =          14        mffmem =           1         mkmem =           5
       mpw =        1762          nfft =       34992          nkpt =           5
  Rough estimation (10% accuracy) of disk space for files :

 The job will continue.
------------- Echo of variables that govern the present computation ------------
-
- outvars: echo of selected default values
-   iomode0 =  0 , fftalg0 =512 , wfoptalg0 =  0
-
- outvars: echo of global parameters not present in the input file
-  max_nthreads =    0
-
 -outvars: echo values of preprocessed input variables --------

 These variables are accessible in NetCDF format (mos2_ecuto_OUT.nc)

            acell      5.9526373186E+00  5.9526373186E+00  3.7794522658E+01 Bohr
              amu      9.59400000E+01  3.20660000E+01
      chksymbreak           0
             ecut      1.00000000E+01 Hartree
-          fftalg         512
           ionmov           2
           istwfk        0    0    0    0    9
              ixc          11
           jdtset        1
              kpt      1.66666667E-01  1.66666667E-01  5.00000000E-01
                       5.00000000E-01  1.66666667E-01  5.00000000E-01
                      -1.66666667E-01  1.66666667E-01  5.00000000E-01
                       1.66666667E-01  5.00000000E-01  5.00000000E-01
                       5.00000000E-01  5.00000000E-01  5.00000000E-01
         kptrlatt        3    0    0      0    3    0      0    0    1
          kptrlen      1.78579120E+01
P           mkmem           5
            natom           3
            nband          14
           ndtset           1
            ngfft          18      18     108
             nkpt           5
            nstep          10
             nsym           1
            ntime          10
           ntypat           2
              occ      2.000000  2.000000  2.000000  2.000000  2.000000  2.000000
                       2.000000  2.000000  2.000000  2.000000  2.000000  2.000000
                       2.000000  0.000000
        optforces           1
            rprim      5.0000000000E-01 -8.6602540378E-01  0.0000000000E+00
                       5.0000000000E-01  8.6602540378E-01  0.0000000000E+00
                       0.0000000000E+00  0.0000000000E+00  1.0000000000E+00
           shiftk      5.00000000E-01  5.00000000E-01  5.00000000E-01
          spgroup           1
           toldff      5.00000000E-05
           tolmxf      5.00000000E-04
            typat      1  2  2
              wtk        0.22222    0.22222    0.22222    0.22222    0.11111
           xangst      1.5750000000E+00  9.0932667397E-01  0.0000000000E+00
                       1.5750000000E+00 -9.0932667397E-01 -1.8388847000E+00
                       1.5750000000E+00 -9.0932667397E-01  1.8388847000E+00
            xcart      2.9763186593E+00  1.7183783791E+00  0.0000000000E+00
                       2.9763186593E+00 -1.7183783791E+00 -3.4749884730E+00
                       2.9763186593E+00 -1.7183783791E+00  3.4749884730E+00
             xred      3.3333333333E-01  6.6666666667E-01  0.0000000000E+00
                       6.6666666667E-01  3.3333333333E-01 -9.1944235000E-02
                       6.6666666667E-01  3.3333333333E-01  9.1944235000E-02
            znucl       42.00000   16.00000

 chkinp: Checking input parameters for consistency, jdtset=   1.
 DATA TYPE INFORMATION:
 REAL:      Data type name: REAL(DP)
            Kind value:      8
            Precision:      15
            Smallest nonnegligible quantity relative to 1: 0.22204460E-015
            Smallest positive number:                      0.22250739E-307
            Largest representable number:                  0.17976931E+309
 INTEGER:   Data type name: INTEGER(default)
            Kind value: 4
            Bit size:   32
            Largest representable number: 2147483647
 LOGICAL:   Data type name: LOGICAL
            Kind value: 4
 CHARACTER: Data type name: CHARACTER             Kind value: 1

  ==== OpenMP parallelism is OFF ====

  xmpi_tag_ub ................   1073741823
  xmpi_bsize_ch ..............            1
  xmpi_bsize_int .............            4
  xmpi_bsize_sp ..............            4
  xmpi_bsize_dp ..............            8
  xmpi_bsize_spc .............            8
  xmpi_bsize_dpc .............           16
  xmpio_bsize_frm ............            4
  xmpi_address_kind ..........            8
  xmpi_offset_kind ...........            8
  MPI_WTICK ..................   4.009470212829836E-010

== DATASET  1 ==================================================================
-   mpi_nproc: 1, omp_nthreads: -1 (-1 if OMP is not activated)

 getdim_nloc: deduce lmnmax  =  18, lnmax  =   6,
                      lmnmaxso=  18, lnmaxso=   6.
 Exchange-correlation functional for the present dataset will be:
  GGA: Perdew-Burke-Ernzerhof functional - ixc=11
 Citation for XC functional:
  J.P.Perdew, K.Burke, M.Ernzerhof, PRL 77, 3865 (1996)

 Unit cell volume ucvol=  1.1597873E+03 bohr^3
 Angles (23,13,12)=  9.00000000E+01  9.00000000E+01  1.20000000E+02 degrees

 getcut: wavevector=  0.0000  0.0000  0.0000  ngfft=  18  18 108
         ecut(hartree)=     10.000   => boxcut(ratio)=   2.00738
- pspini: atom type   1  psp file is ./persudo/Mo.psp8
- pspatm: opening atomic psp file    ./persudo/Mo.psp8
- Mo    ONCVPSP-3.2.3.1  r_core=   1.45541   1.45541   1.35488
- 42.00000  14.00000    170510                znucl, zion, pspdat
    8   11    2    4       600   0.00000      pspcod,pspxc,lmax,lloc,mmax,r2well
    5.99000000000000    3.00000000000000    0.00000000000000   rchrg,fchrg,qchrg
     nproj     2     2     2
     extension_switch     1
  valence charge (before rescaling) integrates to:    13.9106199290666
  pspatm : epsatm=   15.95693586
         --- l  ekb(1:nproj) -->
             0   13.833287    1.350687
             1    8.015347    1.134034
             2    2.765699    0.969071
 pspatm: atomic psp has been read  and splines computed

- pspini: atom type   2  psp file is ./persudo/S.psp8
- pspatm: opening atomic psp file    ./persudo/S.psp8
- S     ONCVPSP-4.0.1  r_core=   1.45687   1.45687   1.45687
- 16.00000   6.00000    220131                znucl, zion, pspdat
    8   11    2    4       600   0.00000      pspcod,pspxc,lmax,lloc,mmax,r2well
[...]
 Etot       = :    -9.157837E+01 Ha ,   -2.491974E+03 eV

 Cartesian components of stress tensor (hartree/bohr^3)
  sigma(1 1)=  1.08501086E-03  sigma(3 2)=  3.94420485E-08
  sigma(2 2)=  1.12514550E-03  sigma(3 1)= -4.07659405E-09
  sigma(3 3)=  1.40743843E-03  sigma(2 1)=  1.62334637E-08

--- !ScfConvergenceWarning
message: |
    nstep 10 was not enough SCF cycles to converge.
...

 scprqt:  WARNING -
  nstep=   10 was not enough SCF cycles to converge;
  maximum force difference=  5.707E-04 exceeds toldff=  5.000E-05

 fftdatar_write: About to write data to: mos2_ecuto_DS1_TIM1_DEN with iomode: IO_MODE_FORTRAN
 Integrated electronic density in atomic spheres:
 Atom  Sphere_radius  Integrated_density
    1        2.00000         10.25271708
    2        2.00000          3.78850553
    3        2.00000          3.78846192
 Write iteration in HIST netCDF file (also create it)

---OUTPUT-----------------------------------------------------------------------

 Cartesian coordinates (xcart) [bohr]
  2.97631865929489E+00  1.71837837912920E+00  0.00000000000000E+00
  2.97631865929489E+00 -1.71837837912920E+00 -3.47498847295358E+00
  2.97631865929489E+00 -1.71837837912920E+00  3.47498847295358E+00
 Reduced coordinates (xred)
  3.33333333333333E-01  6.66666666666667E-01  0.00000000000000E+00
  6.66666666666667E-01  3.33333333333333E-01 -9.19442350000000E-02
  6.66666666666667E-01  3.33333333333333E-01  9.19442350000000E-02
 Cartesian forces (fcart) [Ha/bohr]; max,rms= 6.40164E-02 3.03542E-02 (free atoms)
  3.05344693894589E-06  8.41961531462100E-03  7.91830122791961E-05
 -3.41554603041312E-06 -4.21644923194994E-03  6.39372052103921E-02
  3.62099091467226E-07 -4.20316608267106E-03 -6.40163882226713E-02
 Gradient of E wrt nuclear positions in reduced coordinates (gred)
  4.33951667205900E-02 -4.34133427827891E-02 -2.99268415169203E-03
 -2.17261998372541E-02  2.17465313440181E-02 -2.41647615099500E+00
 -2.16689668833359E-02  2.16668114387710E-02  2.41946883514669E+00
 Total energy (etotal) [Ha]= -9.15783719106084E+01
 fconv : at Broyd/MD step   1, gradients have not converged yet.
  max grad (force/stress) = 6.4016E-02 > tolmxf= 5.0000E-04 ha/bohr (free atoms)

Inverse hessian has been initialized.
 EXIT:           1           1
 {mover_itime: 1 , wall_time: '  7.35 [s] '} <<< TIME

[...]

 fftdatar_write: About to write data to: mos2_ecuto_DS1_TIM2_DEN with iomode: IO_MODE_FORTRAN
 Integrated electronic density in atomic spheres:
 Atom  Sphere_radius  Integrated_density
    1        2.00000         10.25925675
    2        2.00000          3.78255146
    3        2.00000          3.78256189
 Write iteration in HIST netCDF file

[...]

 Cartesian coordinates (xcart) [bohr]
  2.97632171274183E+00  1.72679799444382E+00  7.91830122791961E-05
  2.97631524374886E+00 -1.72259482836115E+00 -3.41105126774318E+00
  2.97631902139398E+00 -1.72258154521187E+00  3.41097208473090E+00
 Reduced coordinates (xred)
  3.32517222177647E-01  6.67483803736339E-01  2.09509227028264E-06
  6.67075049106746E-01  3.32923803319213E-01 -9.02525294110859E-02
  6.67074395382274E-01  3.32925726277781E-01  9.02504343188156E-02
 Cartesian forces (fcart) [Ha/bohr]; max,rms= 5.66784E-02 2.68649E-02 (free atoms)
 -1.04903093325820E-06  7.01769708926409E-03 -2.89117477846363E-05
  1.33946693694073E-06 -3.50791315674895E-03  5.66784161485427E-02
 -2.90436003682534E-07 -3.50978393251515E-03 -5.66495044007581E-02
 Gradient of E wrt nuclear positions in reduced coordinates (gred)
  3.61802990987489E-02 -3.61740545980672E-02  1.09270570672052E-03
 -1.80877530536987E-02  1.80797796928228E-02 -2.14213368332938E+00
 -1.80925460450502E-02  1.80942749052444E-02  2.14104097762265E+00
 Total energy (etotal) [Ha]= -9.15861719833196E+01

 Difference of energy with previous step (new-old):
           Absolute (Ha)=-7.80007E-03
           Relative     =-8.51701E-05
 fconv : at Broyd/MD step   2, gradients have not converged yet.
  max grad (force/stress) = 5.6678E-02 > tolmxf= 5.0000E-04 ha/bohr (free atoms)

 EXIT:           1           1
 {mover_itime: 2 , wall_time: '  6.86 [s] '} <<< TIME

[...]

--- !ScfConvergenceWarning
message: |
    nstep 10 was not enough SCF cycles to converge.
...

 scprqt:  WARNING -
  nstep=   10 was not enough SCF cycles to converge;
  maximum force difference=  1.988E-04 exceeds toldff=  5.000E-05

[...]

 Pulay update with  7 previous iterations:
 mixing of old trial potential: alpha(m:m-4)=   1.75     -0.693E-01 -0.985      0.473E-01  0.284

[...]

 At SCF step   10, forces are converged :
  for the second time, max diff in force=  3.637E-06 < toldff=  5.000E-05

[...]

 Difference of energy with previous step (new-old):
           Absolute (Ha)=-1.53210E-05
           Relative     =-1.67240E-07
 fconv : at Broyd/MD step   7, gradients have not converged yet.
  max grad (force/stress) = 1.0099E-03 > tolmxf= 5.0000E-04 ha/bohr (free atoms)

 EXIT:           1           1
 {mover_itime: 7 , wall_time: '  6.23 [s] '} <<< TIME

--- Iteration: ( 8/10) Internal Cycle: (1/1)

 Cartesian coordinates (xcart) [bohr]
  2.97631898094998E+00  1.74639083775594E+00  1.46654530711201E-05
  2.97632053218750E+00 -1.73238236186433E+00 -3.01705106207866E+00
  2.97631646474719E+00 -1.73238685502081E+00  3.01703639662559E+00
 Reduced coordinates (xred)
  3.30616440297822E-01  6.69383667773633E-01  3.88031175944150E-07
  6.68025236937570E-01  3.31975392327246E-01 -7.98277329602139E-02
  6.68024989431275E-01  3.31974273232454E-01  7.98273449290380E-02

---SELF-CONSISTENT-FIELD CONVERGENCE--------------------------------------------

 getcut: wavevector=  0.0000  0.0000  0.0000  ngfft=  18  18 108
         ecut(hartree)=     10.000   => boxcut(ratio)=   2.00738

[...]

 Simple mixing update:
  residual square of the potential:    1.12508285223450
{SCF_istep: 1 , Vnl|psi>: 1229 , wall_time: '  2.61 [s] '} <<< TIME

 ITER STEP NUMBER     2
 Max number of non-self-consistent loops: 2
 Total charge density [el/Bohr^3]
)     Maximum=    7.9925E-01  at reduced coord.    0.2222    0.7222    0.0000
)     Minimum=    2.9212E-07  at reduced coord.    0.3333    0.6667    0.5000
   Integrated=    2.6000E+01
 ETOT  2  -91.610698492563    -2.086E-05 4.328E-05 3.759E-03 2.660E-03 4.058E-04
 scprqt: <Vxc>= -1.5155632E-01 hartree

[...]

 Pulay update with  5 previous iterations:
 mixing of old trial potential: alpha(m:m-4)=   1.02      0.156     -0.107     -0.580E-01 -0.706E-02
{SCF_istep: 6 , Vnl|psi>: 415 , wall_time: '  0.21 [s] '} <<< TIME

 ITER STEP NUMBER     7
 Total charge density [el/Bohr^3]
)     Maximum=    7.9924E-01  at reduced coord.    0.2778    0.7778    0.0000
)     Minimum=    2.9222E-07  at reduced coord.    0.3333    0.6667    0.5000
   Integrated=    2.6000E+01
 ETOT  7  -91.610699441697    -3.476E-09 1.517E-05 4.336E-04 7.908E-06 3.742E-05
 scprqt: <Vxc>= -1.5154655E-01 hartree

 At SCF step    7, forces are converged :
  for the second time, max diff in force=  7.908E-06 < toldff=  5.000E-05

 Ekinetic   = :     2.871800E+01 Ha ,    7.814565E+02 eV
 Evext_l    = :    -6.044718E+02 Ha ,   -1.644851E+04 eV
 Evext_nl   = :     1.219223E+01 Ha ,    3.317674E+02 eV
 Epsp_core  = :     7.631172E-01 Ha ,    2.076547E+01 eV
 Ehartree   = :     2.814147E+02 Ha ,    7.657684E+03 eV
 Exc_ks     = :    -1.646302E+01 Ha ,   -4.479816E+02 eV
 Enn        = :     2.062361E+02 Ha ,    5.611968E+03 eV
 Etot       = :    -9.161070E+01 Ha ,   -2.492854E+03 eV

[...]

 fftdatar_write: About to write data to: mos2_ecuto_DS1_TIM8_DEN with iomode: IO_MODE_FORTRAN
 Integrated electronic density in atomic spheres:
 Atom  Sphere_radius  Integrated_density
    1        2.00000         10.40314166
    2        2.00000          3.93233023
    3        2.00000          3.93233925
 Write iteration in HIST netCDF file

---OUTPUT-----------------------------------------------------------------------

 Cartesian coordinates (xcart) [bohr]
  2.97631898094998E+00  1.74639083775594E+00  1.46654530711201E-05
  2.97632053218750E+00 -1.73238236186433E+00 -3.01705106207866E+00
  2.97631646474719E+00 -1.73238685502081E+00  3.01703639662559E+00
 Reduced coordinates (xred)
  3.30616440297822E-01  6.69383667773633E-01  3.88031175944150E-07
  6.68025236937570E-01  3.31975392327246E-01 -7.98277329602139E-02
  6.68024989431275E-01  3.31974273232454E-01  7.98273449290380E-02
 Cartesian forces (fcart) [Ha/bohr]; max,rms= 3.74205E-05 1.94922E-05 (free atoms)
 -1.19337174141220E-07  3.74205296685746E-05 -6.94011799817128E-06
 -1.45595156080830E-07 -1.89720189085381E-05  2.84357568173647E-05
  2.64932330222050E-07 -1.84485107600365E-05 -2.14956388191934E-05
 Gradient of E wrt nuclear positions in reduced coordinates (gred)
  1.93263072812268E-04 -1.92552701895980E-04  2.62298446929085E-04
 -9.73699837228405E-05  9.82366588823331E-05 -1.07471585532310E-03
 -9.58930890894277E-05  9.43160430136470E-05  8.12417408394018E-04
 Total energy (etotal) [Ha]= -9.16106994416969E+01

 Difference of energy with previous step (new-old):
           Absolute (Ha)=-4.51903E-06
           Relative     =-4.93286E-08

 At Broyd/MD step   8, gradients are converged :
  max grad (force/stress) = 3.7421E-05 < tolmxf= 5.0000E-04 ha/bohr (free atoms)

 ----iterations are completed or convergence reached----

 === Gap info ===
  >>>> For spin  1
   Minimum direct gap =   2.6622 [eV], located at k-point      :  -0.1667  0.1667  0.5000
   Fundamental gap    =   2.2985 [eV], Top of valence bands at :  -0.1667  0.1667  0.5000
                                       Bottom of conduction at :   0.1667  0.1667  0.5000
 Mean square residual over all n,k,spin=   21.672E-08; max=  15.170E-06
   0.1667  0.1667  0.5000    1  5.28838E-12 kpt; spin; max resid(k); each band:
  5.80E-13 1.85E-13 1.96E-13 5.01E-13 1.76E-12 1.92E-12 3.66E-12 1.87E-12
  2.90E-12 2.14E-12 2.03E-12 5.29E-12 2.46E-12 4.63E-12
   0.5000  0.1667  0.5000    1  1.31110E-10 kpt; spin; max resid(k); each band:
  5.48E-13 3.78E-13 1.58E-13 3.00E-13 1.32E-12 1.49E-12 1.96E-12 6.82E-13
  3.12E-12 2.19E-12 2.68E-12 2.97E-12 5.62E-12 1.31E-10
  -0.1667  0.1667  0.5000    1  1.30868E-11 kpt; spin; max resid(k); each band:
  6.48E-13 2.41E-13 5.13E-13 2.69E-14 2.01E-12 2.15E-12 5.13E-12 1.13E-12
  4.86E-12 3.29E-13 3.68E-13 2.71E-12 4.36E-12 1.31E-11
   0.1667  0.5000  0.5000    1  1.31308E-10 kpt; spin; max resid(k); each band:
  5.52E-13 3.86E-13 1.59E-13 2.92E-13 1.32E-12 1.49E-12 1.96E-12 6.79E-13
  3.11E-12 2.20E-12 2.68E-12 2.97E-12 5.61E-12 1.31E-10
   0.5000  0.5000  0.5000    1  1.51698E-05 kpt; spin; max resid(k); each band:
  4.14E-13 5.23E-13 1.57E-13 1.33E-13 1.33E-12 1.44E-12 1.29E-12 1.12E-12
  2.54E-12 5.66E-13 2.87E-12 3.15E-13 3.53E-12 1.52E-05

   outwf: writing wavefunctions to: mos2_ecuto_DS1_WFK with iomode: IO_MODE_FORTRAN_MASTER
 prteigrs : about to open file mos2_ecuto_DS1_EIG
 Fermi (or HOMO) energy (hartree) =  -0.07453   Average Vxc (hartree)=  -0.15155
 Eigenvalues (hartree) for nkpt=   5  k points:
 kpt#   1, nband= 14, wtk=  0.22222, kpt=  0.1667  0.1667  0.5000 (reduced coord)
  -2.20629   -1.41823   -1.41743   -1.41548   -0.53224   -0.51320   -0.24369   -0.19705
  -0.19287   -0.17869   -0.13099   -0.10242   -0.09235    0.00994
 kpt#   2, nband= 14, wtk=  0.22222, kpt=  0.5000  0.1667  0.5000 (reduced coord)
  -2.21003   -1.42351   -1.41660   -1.41657   -0.50454   -0.49885   -0.25627   -0.24404
  -0.20115   -0.18095   -0.14859   -0.12911   -0.07881    0.02424
 kpt#   3, nband= 14, wtk=  0.22222, kpt= -0.1667  0.1667  0.5000 (reduced coord)
  -2.20896   -1.41845   -1.41632   -1.41105   -0.55642   -0.52435   -0.25038   -0.18053
  -0.16878   -0.13704   -0.13415   -0.10364   -0.07453    0.02330
 kpt#   4, nband= 14, wtk=  0.22222, kpt=  0.1667  0.5000  0.5000 (reduced coord)
  -2.21003   -1.42351   -1.41660   -1.41657   -0.50454   -0.49885   -0.25627   -0.24404
  -0.20115   -0.18095   -0.14859   -0.12911   -0.07881    0.02424
 kpt#   5, nband= 14, wtk=  0.11111, kpt=  0.5000  0.5000  0.5000 (reduced coord)
  -2.21040   -1.42649   -1.41658   -1.41364   -0.50459   -0.49857   -0.27152   -0.24374
  -0.21413   -0.17638   -0.13403   -0.09445   -0.08770    0.03076
 Total charge density [el/Bohr^3]
)     Maximum=    7.9924E-01  at reduced coord.    0.2778    0.7778    0.0000
)Next maximum=    7.9924E-01  at reduced coord.    0.2222    0.7222    0.0000
)     Minimum=    2.9222E-07  at reduced coord.    0.3333    0.6667    0.5000
)Next minimum=    3.2606E-07  at reduced coord.    0.2778    0.7222    0.5000
   Integrated=    2.6000E+01

 Cartesian components of stress tensor (hartree/bohr^3)
  sigma(1 1)=  9.80253005E-04  sigma(3 2)= -1.55899940E-09
  sigma(2 2)=  1.02791974E-03  sigma(3 1)= -1.06643181E-09
  sigma(3 3)=  1.03211721E-03  sigma(2 1)= -1.30309749E-10

-Cartesian components of stress tensor (GPa)         [Pressure= -2.9816E+01 GPa]
- sigma(1 1)=  2.88400343E+01  sigma(3 2)= -4.58673383E-05
- sigma(2 2)=  3.02424378E+01  sigma(3 1)= -3.13755017E-05
- sigma(3 3)=  3.03659316E+01  sigma(2 1)= -3.83384453E-06

== END DATASET(S) ==============================================================

 -outvars: echo values of variables after computation  --------

 These variables are accessible in NetCDF format (mos2_ecuto_OUT.nc)

            acell      5.9526373186E+00  5.9526373186E+00  3.7794522658E+01 Bohr
              amu      9.59400000E+01  3.20660000E+01
      chksymbreak           0
             ecut      1.00000000E+01 Hartree
           etotal1    -9.1610699442E+01
            fcart1    -1.1933717414E-07  3.7420529669E-05 -6.9401179982E-06
                      -1.4559515608E-07 -1.8972018909E-05  2.8435756817E-05
                       2.6493233022E-07 -1.8448510760E-05 -2.1495638819E-05
-          fftalg         512
           ionmov           2
           istwfk        0    0    0    0    9
              ixc          11
           jdtset        1
              kpt      1.66666667E-01  1.66666667E-01  5.00000000E-01
                       5.00000000E-01  1.66666667E-01  5.00000000E-01
                      -1.66666667E-01  1.66666667E-01  5.00000000E-01
                       1.66666667E-01  5.00000000E-01  5.00000000E-01
                       5.00000000E-01  5.00000000E-01  5.00000000E-01
         kptrlatt        3    0    0      0    3    0      0    0    1
          kptrlen      1.78579120E+01
P           mkmem           5
            natom           3
            nband          14
           ndtset           1
            ngfft          18      18     108
             nkpt           5
            nstep          10
             nsym           1
            ntime          10
           ntypat           2
              occ      2.000000  2.000000  2.000000  2.000000  2.000000  2.000000
                       2.000000  2.000000  2.000000  2.000000  2.000000  2.000000
                       2.000000  0.000000
        optforces           1
            rprim      5.0000000000E-01 -8.6602540378E-01  0.0000000000E+00
                       5.0000000000E-01  8.6602540378E-01  0.0000000000E+00
                       0.0000000000E+00  0.0000000000E+00  1.0000000000E+00
           shiftk      5.00000000E-01  5.00000000E-01  5.00000000E-01
          spgroup           1
           strten1     9.8025300529E-04  1.0279197424E-03  1.0321172102E-03
                      -1.5589994026E-09 -1.0664318082E-09 -1.3030974880E-10
           toldff      5.00000000E-05
           tolmxf      5.00000000E-04
            typat      1  2  2
              wtk        0.22222    0.22222    0.22222    0.22222    0.11111
           xangst      1.5750001702E+00  9.2415022863E-01  7.7606235189E-06
                       1.5750009911E+00 -9.1673726246E-01 -1.5965546592E+00
                       1.5749988387E+00 -9.1673964014E-01  1.5965468986E+00
            xcart      2.9763189809E+00  1.7463908378E+00  1.4665453071E-05
                       2.9763205322E+00 -1.7323823619E+00 -3.0170510621E+00
                       2.9763164647E+00 -1.7323868550E+00  3.0170363966E+00
             xred      3.3061644030E-01  6.6938366777E-01  3.8803117594E-07
                       6.6802523694E-01  3.3197539233E-01 -7.9827732960E-02
                       6.6802498943E-01  3.3197427323E-01  7.9827344929E-02
            znucl       42.00000   16.00000

 Calculation completed.
.Delivered   5 WARNINGs and   5 COMMENTs to log file.

--- !FinalSummary
program: abinit
version: 9.10.3
start_datetime: Wed May 07 06:34:11 2025
end_datetime: Wed May 07 06:35:07 2025
overall_cpu_time:          52.0
overall_wall_time:          55.8
exit_requested_by_user: no
timelimit: 0
pseudos:
    Mo  : 228091cb5782e08cb8d68936b3c7e57b
    S   : ee4b2e2802f5df21cf2ecc26b1029f69
usepaw: 0
mpi_procs: 1
omp_threads: 1
num_warnings: 5
num_comments: 5
...