.Version 9.10.3 of ABINIT

 ABINIT is a project of the Universite Catholique de Louvain,
 Corning Inc. and other collaborators, see ~abinit/doc/developers/contributors.txt .
 acknowledgments of the ABINIT effort.

.Starting date : Tue  6 May 2025.
- ( at 20h39 )

 === Build Information ===
  Version       : 9.10.3
  Build target  : x86_64_linux_intel2021.6
  Build date    : 20240126

 === Optimizations ===
  Debug level        : basic
  Optimization level : standard
  Architecture       : intel_xeon

 === Multicore ===
  Parallel build : /shared/ucl/apps/intel/2020/impi/2019.6.166/intel64
  Parallel I/O   :
  openMP support :
  GPU support    :

 === Connectors / Fallbacks ===
  LINALG flavor  : mkl
  FFT flavor     : dfti
  HDF5           : yes
  NetCDF         : yes
  NetCDF Fortran : yes
  Wannier90      : no

 === Experimental features ===
  Exports             :
  GW double-precision :

 Default optimizations:
   -O3

 Optimizations for 43_ptgroups:
   -O0

 CPP options activated during the build:

                  CC_INTEL                   CXX_GNU                  FC_INTEL

                 HAVE_DFTI HAVE_FC_ALLOCATABLE_DT...             HAVE_FC_ASYNC

  HAVE_FC_COMMAND_ARGUMENT      HAVE_FC_COMMAND_LINE        HAVE_FC_CONTIGUOUS

           HAVE_FC_CPUTIME              HAVE_FC_EXIT             HAVE_FC_FLUSH

             HAVE_FC_GAMMA   HAVE_FC_IEEE_ARITHMETIC   HAVE_FC_IEEE_EXCEPTIONS

             HAVE_FC_IOMSG     HAVE_FC_ISO_C_BINDING  HAVE_FC_ISO_FORTRAN_2008

        HAVE_FC_LONG_LINES        HAVE_FC_MOVE_ALLOC  HAVE_FC_ON_THE_FLY_SHAPE

           HAVE_FC_PRIVATE         HAVE_FC_PROTECTED           HAVE_FC_SHIFTLR

         HAVE_FC_STREAM_IO                 HAVE_HDF5             HAVE_HDF5_MPI

         HAVE_LINALG_AXPBY        HAVE_LINALG_GEMM3M         HAVE_LINALG_GEMMT

  HAVE_LINALG_MKL_IMATCOPY   HAVE_LINALG_MKL_OMATADD  HAVE_LINALG_MKL_OMATCOPY

                 HAVE_MPI2       HAVE_MPI_IALLGATHER       HAVE_MPI_IALLREDUCE

        HAVE_MPI_IALLTOALL       HAVE_MPI_IALLTOALLV           HAVE_MPI_IBCAST

         HAVE_MPI_IGATHERV        HAVE_MPI_INTEGER16               HAVE_MPI_IO

 HAVE_MPI_TYPE_CREATE_S...               HAVE_NETCDF       HAVE_NETCDF_FORTRAN

   HAVE_NETCDF_FORTRAN_MPI           HAVE_NETCDF_MPI             HAVE_OS_LINUX

         HAVE_TIMER_ABINIT

- input  file    -> mos2.abi
- output file    -> mos2.abo
- root for input  files -> mos2i
- root for output files -> mos2o

-instrng: 53 lines of input have been read from file mos2.abi

 For atom type 1, psp file is ./persudo/Mo.psp8
 For atom type 2, psp file is ./persudo/S.psp8
  read the values zionpsp= 14.0 , pspcod=   8 , lmax=   2
  read the values zionpsp=  6.0 , pspcod=   8 , lmax=   2

 inpspheads: deduce mpsang = 3, n1xccc = 2501.

 invars1m : enter jdtset= 1

 symlatt: the Bravais lattice is hP (primitive hexagonal)
  xred   is defined in input file
 ingeo: takes atomic coordinates from input array xred

 symlatt: the Bravais lattice is hP (primitive hexagonal)

[...]

--- !COMMENT
src_file: m_symfind.F90
src_line: 995
message: |
    The Bravais lattice determined only from the primitive
    vectors, bravais(1)=  6, is more symmetric
    than the real one, iholohedry=  1, obtained by taking into
    account the atomic positions. Start deforming the primitive vector set.
...

 symlatt: the Bravais lattice is oC (one-face-centered orthorhombic)

--- !COMMENT
src_file: m_symfind.F90
src_line: 1004
message: |
    The Bravais lattice determined from modified primitive
    vectors, bravais(1)=  3, has a lower symmetry than before,
    but is still more symmetric than the real one, iholohedry=  1
    obtained by taking into account the atomic positions.
...

 symlatt: the Bravais lattice is aP (primitive triclinic)
 symspgr: spgroup=   1  P1   (=C1^1)

 invars1m : enter jdtset= 2

 symlatt: the Bravais lattice is hP (primitive hexagonal)
  xred   is defined in input file
 ingeo: takes atomic coordinates from input array xred

[...]

 symlatt: the Bravais lattice is hP (primitive hexagonal)

--- !COMMENT
src_file: m_symfind.F90
src_line: 995
message: |
    The Bravais lattice determined only from the primitive
    vectors, bravais(1)=  6, is more symmetric
    than the real one, iholohedry=  1, obtained by taking into
    account the atomic positions. Start deforming the primitive vector set.
...

 symlatt: the Bravais lattice is oC (one-face-centered orthorhombic)

--- !COMMENT
src_file: m_symfind.F90
src_line: 1004
message: |
    The Bravais lattice determined from modified primitive
    vectors, bravais(1)=  3, has a lower symmetry than before,
    but is still more symmetric than the real one, iholohedry=  1
    obtained by taking into account the atomic positions.
...

 symlatt: the Bravais lattice is aP (primitive triclinic)
 symspgr: spgroup=   1  P1   (=C1^1)
 Real(R)+Recip(G) space primitive vectors, cartesian coordinates (Bohr,Bohr^-1):
 R(1)=  2.9763187 -5.1551351  0.0000000  G(1)=  0.1679928 -0.0969907  0.0000000
 R(2)=  2.9763187  5.1551351  0.0000000  G(2)=  0.1679928  0.0969907  0.0000000
 R(3)=  0.0000000  0.0000000 37.7945227  G(3)=  0.0000000  0.0000000  0.0264589
 Unit cell volume ucvol=  1.1597873E+03 bohr^3
 Unit cell volume ucvol=  1.1597873E+03 bohr^3
 Angles (23,13,12)=  9.00000000E+01  9.00000000E+01  1.20000000E+02 degrees
 Angles (23,13,12)=  9.00000000E+01  9.00000000E+01  1.20000000E+02 degrees
  0.111995176421164       0.111995176421164

 mknormpath : total number of points on the path:       21

 Number of divisions for each segment of the normalized path:
 0.00000 0.00000 0.00000 ==>  0.33333 0.33333 0.00000 ( ndiv:    10 )
 0.33333 0.33333 0.00000 ==>  0.00000 0.00000 0.00000 ( ndiv:    10 )

 invars2: take the default value of fband=  1.25000000E-01

--- !WARNING
src_file: m_invars2.F90
src_line: 2098
message: |
    nbdbuf is not specified in input, using `nbdbuf = 2*nspinor` that may be too small!
    As a consequence, the NSCF cycle may have problems to converge the last bands within nstep iterations.
    To avoid this problem specify nbdbuf in the input file and adjust nband accordingly.
...

 Real(R)+Recip(G) space primitive vectors, cartesian coordinates (Bohr,Bohr^-1):
 R(1)=  2.9763187 -5.1551351  0.0000000  G(1)=  0.1679928 -0.0969907  0.0000000
 R(2)=  2.9763187  5.1551351  0.0000000  G(2)=  0.1679928  0.0969907  0.0000000
 R(3)=  0.0000000  0.0000000 37.7945227  G(3)=  0.0000000  0.0000000  0.0264589
 Unit cell volume ucvol=  1.1597873E+03 bohr^3
 Unit cell volume ucvol=  1.1597873E+03 bohr^3
 Angles (23,13,12)=  9.00000000E+01  9.00000000E+01  1.20000000E+02 degrees
 Angles (23,13,12)=  9.00000000E+01  9.00000000E+01  1.20000000E+02 degrees
  0.111995176421164       0.111995176421164

 mknormpath : total number of points on the path:       21

 Number of divisions for each segment of the normalized path:
 0.00000 0.00000 0.00000 ==>  0.33333 0.33333 0.00000 ( ndiv:    10 )
 0.33333 0.33333 0.00000 ==>  0.00000 0.00000 0.00000 ( ndiv:    10 )

 LMac pawujat is:            0
 LMac pawujat is:            0
 For input ecut=  1.200000E+01 best grid ngfft=      20      20     120
       max ecut=  1.243697E+01

 ==== FFT mesh ====
  FFT mesh divisions ........................    20   20  120
  Augmented FFT divisions ...................    21   21  120
  FFT algorithm .............................   512
  FFT cache size ............................    16
 getmpw: optimal value of mpw= 2310
 For input ecut=  1.200000E+01 best grid ngfft=      20      20     120
       max ecut=  1.243697E+01

 ==== FFT mesh ====
  FFT mesh divisions ........................    20   20  120
  Augmented FFT divisions ...................    21   21  120
  FFT algorithm .............................   512
  FFT cache size ............................    16
 getmpw: optimal value of mpw= 2321

 DATASET    1 : space group P1 (#  1); Bravais aP (primitive triclinic)

 getdim_nloc: deduce lmnmax  =  18, lnmax  =   6,
                      lmnmaxso=  18, lnmaxso=   6.
     intxc =       0    ionmov =       0      iscf =       7    lmnmax =       6
     lnmax =       6     mgfft =     120  mpssoang =       3    mqgrid =    5894
     natom =       3  nloc_mem =       1    nspden =       1   nspinor =       1
    nsppol =       1      nsym =       1    n1xccc =    2501    ntypat =       2
    occopt =       1   xclevel =       2
-    mband =          14        mffmem =           1         mkmem =           2
       mpw =        2310          nfft =       48000          nkpt =           2
  Rough estimation (10% accuracy) of disk space for files :

 The job will continue.

 DATASET    2 : space group P1 (#  1); Bravais aP (primitive triclinic)

 getdim_nloc: deduce lmnmax  =  18, lnmax  =   6,
                      lmnmaxso=  18, lnmaxso=   6.
     intxc =       0    ionmov =       0      iscf =      -2    lmnmax =       6
     lnmax =       6     mgfft =     120  mpssoang =       3    mqgrid =    5894
     natom =       3  nloc_mem =       1    nspden =       1   nspinor =       1
    nsppol =       1      nsym =       1    n1xccc =    2501    ntypat =       2
    occopt =       1   xclevel =       2
-    mband =           4        mffmem =           1         mkmem =          21
       mpw =        2321          nfft =       48000          nkpt =          21
  Rough estimation (10% accuracy) of disk space for files :

 The job will continue.
------------- Echo of variables that govern the present computation ------------
-
- outvars: echo of selected default values
-   iomode0 =  0 , fftalg0 =512 , wfoptalg0 =  0
-
- outvars: echo of global parameters not present in the input file
-  max_nthreads =    0
-
 -outvars: echo values of preprocessed input variables --------

 These variables are accessible in NetCDF format (mos2o_OUT.nc)

            acell      5.9526373186E+00  5.9526373186E+00  3.7794522658E+01 Bohr
              amu      9.59400000E+01  3.20660000E+01
      chksymbreak           0
             ecut      1.20000000E+01 Hartree
           enunit1          0
           enunit2          1
-          fftalg         512
           getden1          0
           getden2         -1
             iscf1          7
             iscf2         -2
           istwfk1       2    0
           istwfk2       2    0    0    0    0    0    0    0    0    0
                         0    0    0    0    0    0    0    0    0    0
                         2
              ixc          11
           jdtset        1    2
              kpt1     0.00000000E+00  0.00000000E+00  0.00000000E+00
                       3.33333333E-01  0.00000000E+00  0.00000000E+00
              kpt2     0.00000000E+00  0.00000000E+00  0.00000000E+00
                       3.33333333E-02  3.33333333E-02  0.00000000E+00
                       6.66666667E-02  6.66666667E-02  0.00000000E+00
                       1.00000000E-01  1.00000000E-01  0.00000000E+00
                       1.33333333E-01  1.33333333E-01  0.00000000E+00
                       1.66666667E-01  1.66666667E-01  0.00000000E+00
                       2.00000000E-01  2.00000000E-01  0.00000000E+00
[...]
 wfconv:     4 bands initialized randomly with npw=  2273, for ikpt=    10
 wfconv:     4 bands initialized randomly with npw=  2256, for ikpt=    11
 wfconv:     4 bands initialized randomly with npw=  2273, for ikpt=    12
 wfconv:     4 bands initialized randomly with npw=  2275, for ikpt=    13
 wfconv:     4 bands initialized randomly with npw=  2305, for ikpt=    14
 wfconv:     4 bands initialized randomly with npw=  2301, for ikpt=    15
 wfconv:     4 bands initialized randomly with npw=  2301, for ikpt=    16
 wfconv:     4 bands initialized randomly with npw=  2321, for ikpt=    17
 wfconv:     4 bands initialized randomly with npw=  2317, for ikpt=    18
 wfconv:     4 bands initialized randomly with npw=  2319, for ikpt=    19
 wfconv:     4 bands initialized randomly with npw=  2319, for ikpt=    20
 wfconv:     4 bands initialized randomly with npw=  1164, for ikpt=    21
 About to read data(r) from: mos2o_DS1_DEN

          - hdr_check: checking restart file header for consistency -

          current calculation                           restart file

  calculation expects a density             |  input file contains a density
. ABINIT  code version 9.10.3               |  ABINIT  code version 9.10.3
. date 20250506 bantot       84 natom    3  |  date 20250506 bantot       28 natom    3
  nkpt      21 nsym  1 ngfft  20,  20, 120  |  nkpt       2 nsym  1 ngfft  20,  20, 120
  ntypat  2 ecut_eff  12.0000000            |  ntypat  2 ecut_eff  12.0000000
  usepaw  0                                 |  usepaw  0
  usewvl  0                                 |  usewvl  0
  rprimd:                                   |  rprimd:
     2.9763187  -5.1551351   0.0000000      |     2.9763187  -5.1551351   0.0000000
     2.9763187   5.1551351   0.0000000      |     2.9763187   5.1551351   0.0000000
     0.0000000   0.0000000  37.7945227      |     0.0000000   0.0000000  37.7945227
  symafm:                                   |  symafm:
    1                                       |    1
  symrel:                                   |  symrel:
    1  0  0  0  1  0  0  0  1               |    1  0  0  0  1  0  0  0  1
  typat:                                    |  typat:
    1  2  2                                 |    1  2  2
  so_psp  :                                 |  so_psp  :
    1  1                                    |    1  1

--- !COMMENT
src_file: m_hdr.F90
src_line: 4232
message: |
    input kptrlatt = 0 0 0 0 0 0 0 0 0  /= disk file kptrlatt = 3 0 0 0 1 0 0 0 1
...

--- !COMMENT
src_file: m_hdr.F90
src_line: 4235
message: |
    input kptopt = -2  /= disk file kptopt = 1
...

--- !WARNING
src_file: m_hdr.F90
src_line: 4256
message: |
    input ival=0 not equal disk file ival=13
...

  tnons:                                    |  tnons:
     0.0000000   0.0000000   0.0000000      |     0.0000000   0.0000000   0.0000000
   znucl:                                   |   znucl:
   42.00 16.00                              |       42.00 16.00
  pseudopotential atom type  1:             |  pseudopotential atom type  1:
  pspso   0 pspxc  11                       |  pspso   0 pspxc  11
  pspdat   170510 pspcod    8 zion  14.0    |  pspdat   170510 pspcod    8 zion  14.0
  pseudopotential atom type  2:             |  pseudopotential atom type  2:
  pspso   0 pspxc  11                       |  pspso   0 pspxc  11
  pspdat   220131 pspcod    8 zion   6.0    |  pspdat   220131 pspcod    8 zion   6.0
  xred:                                     |  xred:
     0.3333333   0.6666667   0.0000000      |     0.3333333   0.6666667   0.0000000
     0.6666667   0.3333333  -0.0919442      |     0.6666667   0.3333333  -0.0919442
     0.6666667   0.3333333   0.0919442      |     0.6666667   0.3333333   0.0919442
 hdr_check:  Density/Potential file is OK for restart of calculation

 getcut: wavevector=  0.0000  0.0000  0.0000  ngfft=  20  20 120
         ecut(hartree)=     12.000   => boxcut(ratio)=   2.03609
 Max number of non-self-consistent loops: 10
 k-point: [ 1 / 21 ], spin: 1
   Printing residuals every mod(20) iterations...
   NSCF loop completed after 7 iterations

 Ekinetic   = :     0.000000E+00 Ha ,    0.000000E+00 eV
 Evext_l    = :     0.000000E+00 Ha ,    0.000000E+00 eV
 Evext_nl   = :     0.000000E+00 Ha ,    0.000000E+00 eV
 Epsp_core  = :     7.631172E-01 Ha ,    2.076547E+01 eV
 Ehartree   = :     0.000000E+00 Ha ,    0.000000E+00 eV
 Exc_ks     = :    -1.640372E+01 Ha ,   -4.463680E+02 eV
 Enn        = :     1.895732E+02 Ha ,    5.158549E+03 eV
 Etot       = :     1.739326E+02 Ha ,    4.732947E+03 eV

 fftdatar_write: About to write data to: mos2o_DS2_DEN with iomode: IO_MODE_FORTRAN
 Integrated electronic density in atomic spheres:
 Atom  Sphere_radius  Integrated_density
    1        2.00000         10.44089670
    2        2.00000          3.84521671
    3        2.00000          3.84512670

 ----iterations are completed or convergence reached----

 === Gap info ===
Not enough states to calculate the band gap.
 Mean square residual over all n,k,spin=   55.314E-14; max=  99.222E-14
   0.0000  0.0000  0.0000    1  7.32813E-13 kpt; spin; max resid(k); each band:
  5.56E-13 5.95E-13 7.33E-13 4.94E-13
   0.0333  0.0333  0.0000    1  8.80231E-13 kpt; spin; max resid(k); each band:
  8.80E-13 2.58E-13 3.76E-13 4.55E-13
   0.0667  0.0667  0.0000    1  9.92220E-13 kpt; spin; max resid(k); each band:
  9.92E-13 4.65E-13 3.70E-13 7.25E-13
   0.1000  0.1000  0.0000    1  9.02758E-13 kpt; spin; max resid(k); each band:
  5.63E-13 3.40E-13 8.66E-13 9.03E-13
   0.1333  0.1333  0.0000    1  8.43324E-13 kpt; spin; max resid(k); each band:
  4.05E-13 5.42E-13 5.56E-13 8.43E-13
   0.1667  0.1667  0.0000    1  6.64852E-13 kpt; spin; max resid(k); each band:
  4.74E-13 6.48E-13 2.73E-13 6.65E-13
   0.2000  0.2000  0.0000    1  6.43557E-13 kpt; spin; max resid(k); each band:
  4.53E-13 6.44E-13 3.59E-13 3.48E-13
   0.2333  0.2333  0.0000    1  8.35821E-13 kpt; spin; max resid(k); each band:
  7.11E-13 8.36E-13 2.50E-13 8.10E-13
   0.2667  0.2667  0.0000    1  7.10738E-13 kpt; spin; max resid(k); each band:
  6.18E-13 4.31E-13 4.71E-13 7.11E-13
   0.3000  0.3000  0.0000    1  4.61788E-13 kpt; spin; max resid(k); each band:
  3.74E-13 2.83E-13 4.62E-13 4.13E-13
   0.3333  0.3333  0.0000    1  6.01799E-13 kpt; spin; max resid(k); each band:
  4.94E-13 6.02E-13 2.02E-13 2.44E-13
   0.3000  0.3000  0.0000    1  4.61788E-13 kpt; spin; max resid(k); each band:
  3.74E-13 2.83E-13 4.62E-13 4.13E-13
   0.2667  0.2667  0.0000    1  7.10738E-13 kpt; spin; max resid(k); each band:
  6.18E-13 4.31E-13 4.71E-13 7.11E-13
   0.2333  0.2333  0.0000    1  8.35821E-13 kpt; spin; max resid(k); each band:
  7.11E-13 8.36E-13 2.50E-13 8.10E-13
   0.2000  0.2000  0.0000    1  6.43557E-13 kpt; spin; max resid(k); each band:
  4.53E-13 6.44E-13 3.59E-13 3.48E-13
   0.1667  0.1667  0.0000    1  6.64852E-13 kpt; spin; max resid(k); each band:
  4.74E-13 6.48E-13 2.73E-13 6.65E-13
   0.1333  0.1333  0.0000    1  8.43324E-13 kpt; spin; max resid(k); each band:
  4.05E-13 5.42E-13 5.56E-13 8.43E-13
   0.1000  0.1000  0.0000    1  9.02758E-13 kpt; spin; max resid(k); each band:
  5.63E-13 3.40E-13 8.66E-13 9.03E-13
   0.0667  0.0667  0.0000    1  9.92220E-13 kpt; spin; max resid(k); each band:
  9.92E-13 4.65E-13 3.70E-13 7.25E-13
   0.0333  0.0333  0.0000    1  8.80231E-13 kpt; spin; max resid(k); each band:
  8.80E-13 2.58E-13 3.76E-13 4.55E-13
   0.0000  0.0000  0.0000    1  7.32813E-13 kpt; spin; max resid(k); each band:
  5.56E-13 5.95E-13 7.33E-13 4.94E-13

   outwf: writing wavefunctions to: mos2o_DS2_WFK with iomode: IO_MODE_FORTRAN_MASTER
 prteigrs : about to open file mos2o_DS2_EIG
 Eigenvalues (   eV  ) for nkpt=  21  k points:
 kpt#   1, nband=  4, wtk=  1.00000, kpt=  0.0000  0.0000  0.0000 (reduced coord)
 -60.30098  -36.86023  -36.78441  -36.21576
 kpt#   2, nband=  4, wtk=  1.00000, kpt=  0.0333  0.0333  0.0000 (reduced coord)
 -60.27960  -36.86942  -36.78221  -36.22058
 kpt#   3, nband=  4, wtk=  1.00000, kpt=  0.0667  0.0667  0.0000 (reduced coord)
 -60.27711  -36.89668  -36.77622  -36.23501
 kpt#   4, nband=  4, wtk=  1.00000, kpt=  0.1000  0.1000  0.0000 (reduced coord)
 -60.26232  -36.93791  -36.76734  -36.25702
 kpt#   5, nband=  4, wtk=  1.00000, kpt=  0.1333  0.1333  0.0000 (reduced coord)
 -60.26239  -36.98735  -36.75651  -36.28487
 kpt#   6, nband=  4, wtk=  1.00000, kpt=  0.1667  0.1667  0.0000 (reduced coord)
 -60.19039  -37.03745  -36.74462  -36.31579
 kpt#   7, nband=  4, wtk=  1.00000, kpt=  0.2000  0.2000  0.0000 (reduced coord)
 -60.17317  -37.08112  -36.73376  -36.34924
 kpt#   8, nband=  4, wtk=  1.00000, kpt=  0.2333  0.2333  0.0000 (reduced coord)
 -60.17158  -37.11185  -36.72481  -36.38288
 kpt#   9, nband=  4, wtk=  1.00000, kpt=  0.2667  0.2667  0.0000 (reduced coord)
 -60.08053  -37.12520  -36.71792  -36.41448
 kpt#  10, nband=  4, wtk=  1.00000, kpt=  0.3000  0.3000  0.0000 (reduced coord)
 -60.07312  -37.12324  -36.71454  -36.44254
 kpt#  11, nband=  4, wtk=  1.00000, kpt=  0.3333  0.3333  0.0000 (reduced coord)
 -60.02454  -37.10866  -36.71371  -36.46394
 kpt#  12, nband=  4, wtk=  1.00000, kpt=  0.3000  0.3000  0.0000 (reduced coord)
 -60.07312  -37.12324  -36.71454  -36.44254
 kpt#  13, nband=  4, wtk=  1.00000, kpt=  0.2667  0.2667  0.0000 (reduced coord)
 -60.08053  -37.12520  -36.71792  -36.41448
 kpt#  14, nband=  4, wtk=  1.00000, kpt=  0.2333  0.2333  0.0000 (reduced coord)
 -60.17158  -37.11185  -36.72481  -36.38288
 kpt#  15, nband=  4, wtk=  1.00000, kpt=  0.2000  0.2000  0.0000 (reduced coord)
 -60.17317  -37.08112  -36.73376  -36.34924
 kpt#  16, nband=  4, wtk=  1.00000, kpt=  0.1667  0.1667  0.0000 (reduced coord)
 -60.19039  -37.03745  -36.74462  -36.31579
 kpt#  17, nband=  4, wtk=  1.00000, kpt=  0.1333  0.1333  0.0000 (reduced coord)
 -60.26239  -36.98735  -36.75651  -36.28487
 kpt#  18, nband=  4, wtk=  1.00000, kpt=  0.1000  0.1000  0.0000 (reduced coord)
 -60.26232  -36.93791  -36.76734  -36.25702
 kpt#  19, nband=  4, wtk=  1.00000, kpt=  0.0667  0.0667  0.0000 (reduced coord)
 -60.27711  -36.89668  -36.77622  -36.23501
 kpt#  20, nband=  4, wtk=  1.00000, kpt=  0.0333  0.0333  0.0000 (reduced coord)
 -60.27960  -36.86942  -36.78221  -36.22058
 kpt#  21, nband=  4, wtk=  1.00000, kpt=  0.0000  0.0000  0.0000 (reduced coord)
 -60.30098  -36.86023  -36.78441  -36.21576
 Total charge density [el/Bohr^3]
)     Maximum=    8.5192E-01  at reduced coord.    0.3000    0.5000    0.0000
)Next maximum=    8.5191E-01  at reduced coord.    0.3000    0.8000    0.0000
)     Minimum=    9.3439E-08  at reduced coord.    0.7000    0.3500    0.4833
)Next minimum=    9.3626E-08  at reduced coord.    0.7000    0.3500    0.5167
   Integrated=    2.6000E+01

== END DATASET(S) ==============================================================

 -outvars: echo values of variables after computation  --------

 These variables are accessible in NetCDF format (mos2o_OUT.nc)

            acell      5.9526373186E+00  5.9526373186E+00  3.7794522658E+01 Bohr
              amu      9.59400000E+01  3.20660000E+01
      chksymbreak           0
             ecut      1.20000000E+01 Hartree
           enunit1          0
           enunit2          1
           etotal1    -9.1752283410E+01
            fcart1    -1.4795593155E-02  8.5330553409E-03 -1.6145528859E-04
                       7.3989240421E-03 -4.2618628316E-03  7.7765506746E-02
                       7.3966691126E-03 -4.2711925093E-03 -7.7604051457E-02
-          fftalg         512
           getden1          0
           getden2         -1
             iscf1          7
             iscf2         -2
           istwfk1       2    0
           istwfk2       2    0    0    0    0    0    0    0    0    0
                         0    0    0    0    0    0    0    0    0    0
                         2
              ixc          11
           jdtset        1    2
              kpt1     0.00000000E+00  0.00000000E+00  0.00000000E+00
                       3.33333333E-01  0.00000000E+00  0.00000000E+00
              kpt2     0.00000000E+00  0.00000000E+00  0.00000000E+00
                       3.33333333E-02  3.33333333E-02  0.00000000E+00
                       6.66666667E-02  6.66666667E-02  0.00000000E+00
                       1.00000000E-01  1.00000000E-01  0.00000000E+00
                       1.33333333E-01  1.33333333E-01  0.00000000E+00
                       1.66666667E-01  1.66666667E-01  0.00000000E+00
                       2.00000000E-01  2.00000000E-01  0.00000000E+00
                       2.33333333E-01  2.33333333E-01  0.00000000E+00
                       2.66666667E-01  2.66666667E-01  0.00000000E+00
                       3.00000000E-01  3.00000000E-01  0.00000000E+00
                       3.33333333E-01  3.33333333E-01  0.00000000E+00
                       3.00000000E-01  3.00000000E-01  0.00000000E+00
                       2.66666667E-01  2.66666667E-01  0.00000000E+00
                       2.33333333E-01  2.33333333E-01  0.00000000E+00
                       2.00000000E-01  2.00000000E-01  0.00000000E+00
                       1.66666667E-01  1.66666667E-01  0.00000000E+00
                       1.33333333E-01  1.33333333E-01  0.00000000E+00
                       1.00000000E-01  1.00000000E-01  0.00000000E+00
                       6.66666667E-02  6.66666667E-02  0.00000000E+00
                       3.33333333E-02  3.33333333E-02  0.00000000E+00
                       0.00000000E+00  0.00000000E+00  0.00000000E+00
           kptopt1          1
           kptopt2         -2
         kptrlatt        3    0    0      0    1    0      0    0    1
          kptrlen1     5.95263732E+00
          kptrlen2     3.00000000E+01
P           mkmem1          2
P           mkmem2         21
            natom           3
            nband1         14
            nband2          4
           nbdbuf1          0
           nbdbuf2          2
           ndtset           2
           ndivsm1          0
           ndivsm2         10
            ngfft          20      20     120
             nkpt1          2
             nkpt2         21
            nstep          10
             nsym           1
           ntypat           2
              occ      2.000000  2.000000  2.000000  2.000000  2.000000  2.000000
                       2.000000  2.000000  2.000000  2.000000  2.000000  2.000000
                       2.000000  0.000000
            rprim      5.0000000000E-01 -8.6602540378E-01  0.0000000000E+00
                       5.0000000000E-01  8.6602540378E-01  0.0000000000E+00
                       0.0000000000E+00  0.0000000000E+00  1.0000000000E+00
           shiftk1     0.00000000E+00  0.00000000E+00  0.00000000E+00
           shiftk2     5.00000000E-01  5.00000000E-01  5.00000000E-01
          spgroup           1
           strten1     6.7451113053E-04  5.7665175887E-04  1.1796823235E-03
                       5.8327925101E-08  3.4044112007E-08 -8.4780142943E-05
           toldfe1     1.00000000E-06 Hartree
           toldfe2     0.00000000E+00 Hartree
           tolwfr1     0.00000000E+00
           tolwfr2     1.00000000E-12
            typat      1  2  2
              wtk1       0.33333    0.66667
              wtk2       1.00000    1.00000    1.00000    1.00000    1.00000    1.00000
                         1.00000    1.00000    1.00000    1.00000    1.00000    1.00000
                         1.00000    1.00000    1.00000    1.00000    1.00000    1.00000
                         1.00000    1.00000    1.00000
           xangst      1.5750000000E+00  9.0932667397E-01  0.0000000000E+00
                       1.5750000000E+00 -9.0932667397E-01 -1.8388847000E+00
                       1.5750000000E+00 -9.0932667397E-01  1.8388847000E+00
            xcart      2.9763186593E+00  1.7183783791E+00  0.0000000000E+00
                       2.9763186593E+00 -1.7183783791E+00 -3.4749884730E+00
                       2.9763186593E+00 -1.7183783791E+00  3.4749884730E+00
             xred      3.3333333333E-01  6.6666666667E-01  0.0000000000E+00
                       6.6666666667E-01  3.3333333333E-01 -9.1944235000E-02
                       6.6666666667E-01  3.3333333333E-01  9.1944235000E-02
            znucl       42.00000   16.00000

 Calculation completed.
.Delivered   4 WARNINGs and   8 COMMENTs to log file.

--- !FinalSummary
program: abinit
version: 9.10.3
start_datetime: Tue May 06 20:39:38 2025
end_datetime: Tue May 06 20:39:58 2025
overall_cpu_time:          10.5
overall_wall_time:          20.6
exit_requested_by_user: no
timelimit: 0
pseudos:
    Mo  : 228091cb5782e08cb8d68936b3c7e57b
    S   : ee4b2e2802f5df21cf2ecc26b1029f69
usepaw: 0
mpi_procs: 1
omp_threads: 1
num_warnings: 4
num_comments: 8
...