.Version 9.10.3 of ABINIT

 ABINIT is a project of the Universite Catholique de Louvain,
 Corning Inc. and other collaborators, see ~abinit/doc/developers/contributors.txt .
 acknowledgments of the ABINIT effort.

.Starting date : Wed  7 May 2025.
- ( at 07h09 )

 === Build Information ===
  Version       : 9.10.3
  Build target  : x86_64_linux_intel2021.6
  Build date    : 20240126

 === Optimizations ===
  Debug level        : basic
  Optimization level : standard
  Architecture       : intel_xeon

 === Multicore ===
  Parallel build : /shared/ucl/apps/intel/2020/impi/2019.6.166/intel64
  Parallel I/O   :
  openMP support :
  GPU support    :

 === Connectors / Fallbacks ===
  LINALG flavor  : mkl
  FFT flavor     : dfti
  HDF5           : yes
  NetCDF         : yes
  NetCDF Fortran : yes
  Wannier90      : no

 === Experimental features ===
  Exports             :
  GW double-precision :

 Default optimizations:
   -O3

 Optimizations for 43_ptgroups:
   -O0

 CPP options activated during the build:

                  CC_INTEL                   CXX_GNU                  FC_INTEL

                 HAVE_DFTI HAVE_FC_ALLOCATABLE_DT...             HAVE_FC_ASYNC

  HAVE_FC_COMMAND_ARGUMENT      HAVE_FC_COMMAND_LINE        HAVE_FC_CONTIGUOUS

           HAVE_FC_CPUTIME              HAVE_FC_EXIT             HAVE_FC_FLUSH

             HAVE_FC_GAMMA   HAVE_FC_IEEE_ARITHMETIC   HAVE_FC_IEEE_EXCEPTIONS

             HAVE_FC_IOMSG     HAVE_FC_ISO_C_BINDING  HAVE_FC_ISO_FORTRAN_2008

        HAVE_FC_LONG_LINES        HAVE_FC_MOVE_ALLOC  HAVE_FC_ON_THE_FLY_SHAPE

           HAVE_FC_PRIVATE         HAVE_FC_PROTECTED           HAVE_FC_SHIFTLR

         HAVE_FC_STREAM_IO                 HAVE_HDF5             HAVE_HDF5_MPI

         HAVE_LINALG_AXPBY        HAVE_LINALG_GEMM3M         HAVE_LINALG_GEMMT

  HAVE_LINALG_MKL_IMATCOPY   HAVE_LINALG_MKL_OMATADD  HAVE_LINALG_MKL_OMATCOPY

                 HAVE_MPI2       HAVE_MPI_IALLGATHER       HAVE_MPI_IALLREDUCE

        HAVE_MPI_IALLTOALL       HAVE_MPI_IALLTOALLV           HAVE_MPI_IBCAST

         HAVE_MPI_IGATHERV        HAVE_MPI_INTEGER16               HAVE_MPI_IO

 HAVE_MPI_TYPE_CREATE_S...               HAVE_NETCDF       HAVE_NETCDF_FORTRAN

   HAVE_NETCDF_FORTRAN_MPI           HAVE_NETCDF_MPI             HAVE_OS_LINUX

         HAVE_TIMER_ABINIT

- input  file    -> mos2_ecut.abi
- output file    -> mos2_ecut.abo
- root for input  files -> mos2_ecuti
- root for output files -> mos2_ecuto

-instrng: 40 lines of input have been read from file mos2_ecut.abi

 For atom type 1, psp file is ./persudo/Mo.psp8
 For atom type 2, psp file is ./persudo/S.psp8
  read the values zionpsp= 14.0 , pspcod=   8 , lmax=   2
  read the values zionpsp=  6.0 , pspcod=   8 , lmax=   2

 inpspheads: deduce mpsang = 3, n1xccc = 2501.

 invars1m : enter jdtset= 11

 symlatt: the Bravais lattice is hP (primitive hexagonal)
  xred   is defined in input file
 ingeo: takes atomic coordinates from input array xred

 symlatt: the Bravais lattice is hP (primitive hexagonal)

[...]

--- !COMMENT
src_file: m_symfind.F90
src_line: 995
message: |
    The Bravais lattice determined only from the primitive
    vectors, bravais(1)=  6, is more symmetric
    than the real one, iholohedry=  1, obtained by taking into
    account the atomic positions. Start deforming the primitive vector set.
...

 symlatt: the Bravais lattice is oC (one-face-centered orthorhombic)

--- !COMMENT
src_file: m_symfind.F90
src_line: 1004
message: |
    The Bravais lattice determined from modified primitive
    vectors, bravais(1)=  3, has a lower symmetry than before,
    but is still more symmetric than the real one, iholohedry=  1
    obtained by taking into account the atomic positions.
...

 symlatt: the Bravais lattice is aP (primitive triclinic)
 symspgr: spgroup=   1  P1   (=C1^1)

[...]

 symlatt: the Bravais lattice is aP (primitive triclinic)
 symspgr: spgroup=   1  P1   (=C1^1)

 invars1m : enter jdtset= 41

 symlatt: the Bravais lattice is hP (primitive hexagonal)
  xred   is defined in input file
 ingeo: takes atomic coordinates from input array xred

[...]

 symlatt: the Bravais lattice is hP (primitive hexagonal)

--- !COMMENT
src_file: m_symfind.F90
src_line: 995
message: |
    The Bravais lattice determined only from the primitive
    vectors, bravais(1)=  6, is more symmetric
    than the real one, iholohedry=  1, obtained by taking into
    account the atomic positions. Start deforming the primitive vector set.
...

 symlatt: the Bravais lattice is oC (one-face-centered orthorhombic)

--- !COMMENT
src_file: m_symfind.F90
src_line: 1004
message: |
    The Bravais lattice determined from modified primitive
    vectors, bravais(1)=  3, has a lower symmetry than before,
    but is still more symmetric than the real one, iholohedry=  1
    obtained by taking into account the atomic positions.
...

 symlatt: the Bravais lattice is aP (primitive triclinic)
 symspgr: spgroup=   1  P1   (=C1^1)
 invars2: take the default value of fband=  1.25000000E-01
 invars2: take the default value of fband=  1.25000000E-01
 invars2: take the default value of fband=  1.25000000E-01
 invars2: take the default value of fband=  1.25000000E-01
 LMac pawujat is:            0
 LMac pawujat is:            0
 LMac pawujat is:            0
 LMac pawujat is:            0
 For input ecut=  1.000000E+01 best grid ngfft=      18      18     108
       max ecut=  1.007394E+01

 ==== FFT mesh ====
  FFT mesh divisions ........................    18   18  108
  Augmented FFT divisions ...................    19   19  108
  FFT algorithm .............................   512
  FFT cache size ............................    16
 getmpw: optimal value of mpw= 1762
 For input ecut=  1.500000E+01 best grid ngfft=      24      24     135
       max ecut=  1.550821E+01

[...]

 ==== FFT mesh ====
  FFT mesh divisions ........................    24   24  160
  Augmented FFT divisions ...................    25   25  160
  FFT algorithm .............................   512
  FFT cache size ............................    16
 getmpw: optimal value of mpw= 4984
 For input ecut=  2.500000E+01 best grid ngfft=      30      30     180
       max ecut=  2.798318E+01

 ==== FFT mesh ====
  FFT mesh divisions ........................    30   30  180
  Augmented FFT divisions ...................    31   31  180
  FFT algorithm .............................   512
  FFT cache size ............................    16
 getmpw: optimal value of mpw= 6948

 DATASET   11 : space group P1 (#  1); Bravais aP (primitive triclinic)

 getdim_nloc: deduce lmnmax  =  18, lnmax  =   6,
                      lmnmaxso=  18, lnmaxso=   6.
     intxc =       0    ionmov =       2      iscf =       7    lmnmax =       6
     lnmax =       6     mgfft =     108  mpssoang =       3    mqgrid =    5381
     natom =       3  nloc_mem =       1    nspden =       1   nspinor =       1
    nsppol =       1      nsym =       1    n1xccc =    2501    ntypat =       2
    occopt =       1   xclevel =       2
-    mband =          14        mffmem =           1         mkmem =           5
       mpw =        1762          nfft =       34992          nkpt =           5
  Rough estimation (10% accuracy) of disk space for files :

 The job will continue.

[...]

 The job will continue.

 DATASET   41 : space group P1 (#  1); Bravais aP (primitive triclinic)

 getdim_nloc: deduce lmnmax  =  18, lnmax  =   6,
                      lmnmaxso=  18, lnmaxso=   6.
     intxc =       0    ionmov =       2      iscf =       7    lmnmax =       6
     lnmax =       6     mgfft =     180  mpssoang =       3    mqgrid =    8507
     natom =       3  nloc_mem =       1    nspden =       1   nspinor =       1
    nsppol =       1      nsym =       1    n1xccc =    2501    ntypat =       2
    occopt =       1   xclevel =       2
-    mband =          14        mffmem =           1         mkmem =           5
       mpw =        6948          nfft =      162000          nkpt =           5
  Rough estimation (10% accuracy) of disk space for files :

 The job will continue.
------------- Echo of variables that govern the present computation ------------
-
- outvars: echo of selected default values
-   iomode0 =  0 , fftalg0 =512 , wfoptalg0 =  0
-
- outvars: echo of global parameters not present in the input file
-  max_nthreads =    0
-
 -outvars: echo values of preprocessed input variables --------

 These variables are accessible in NetCDF format (mos2_ecuto_OUT.nc)

            acell      5.9526373186E+00  5.9526373186E+00  3.7794522658E+01 Bohr
              amu      9.59400000E+01  3.20660000E+01
      chksymbreak           0
             ecut11    1.00000000E+01 Hartree
             ecut21    1.50000000E+01 Hartree
             ecut31    2.00000000E+01 Hartree
             ecut41    2.50000000E+01 Hartree
-          fftalg         512
           ionmov           2
           istwfk        0    0    0    0    9
              ixc          11
           jdtset       11   21   31   41
              kpt      1.66666667E-01  1.66666667E-01  5.00000000E-01
                       5.00000000E-01  1.66666667E-01  5.00000000E-01
                      -1.66666667E-01  1.66666667E-01  5.00000000E-01
                       1.66666667E-01  5.00000000E-01  5.00000000E-01
                       5.00000000E-01  5.00000000E-01  5.00000000E-01
         kptrlatt        3    0    0      0    3    0      0    0    1
          kptrlen      1.78579120E+01
P           mkmem           5
            natom           3
            nband          14
           ndtset           4
            ngfft11        18      18     108
            ngfft21        24      24     135
            ngfft31        24      24     160
            ngfft41        30      30     180
             nkpt           5
            nstep          10
             nsym           1
            ntime          10
           ntypat           2
              occ      2.000000  2.000000  2.000000  2.000000  2.000000  2.000000
                       2.000000  2.000000  2.000000  2.000000  2.000000  2.000000
                       2.000000  0.000000
        optforces           1
            rprim      5.0000000000E-01 -8.6602540378E-01  0.0000000000E+00
                       5.0000000000E-01  8.6602540378E-01  0.0000000000E+00
                       0.0000000000E+00  0.0000000000E+00  1.0000000000E+00
           shiftk      5.00000000E-01  5.00000000E-01  5.00000000E-01
          spgroup           1
           toldff      5.00000000E-05
           tolmxf      5.00000000E-04
            typat      1  2  2
              wtk        0.22222    0.22222    0.22222    0.22222    0.11111
           xangst      1.5750000000E+00  9.0932667397E-01  0.0000000000E+00
                       1.5750000000E+00 -9.0932667397E-01 -1.8388847000E+00
                       1.5750000000E+00 -9.0932667397E-01  1.8388847000E+00
            xcart      2.9763186593E+00  1.7183783791E+00  0.0000000000E+00
                       2.9763186593E+00 -1.7183783791E+00 -3.4749884730E+00
                       2.9763186593E+00 -1.7183783791E+00  3.4749884730E+00
[...]
 -2.93956837356762E-05 -3.91762941647308E-03 -7.00679709013518E-02
 Gradient of E wrt nuclear positions in reduced coordinates (gred)
  4.03934254019634E-02 -4.06573751204230E-02  1.17413205643572E-02
 -2.02850072638450E-02  2.03739751382941E-02 -2.65992683437546E+00
 -2.01084181381184E-02  2.02833999821289E-02  2.64818551381110E+00
 Total energy (etotal) [Ha]= -9.23277636911712E+01
 fconv : at Broyd/MD step   1, gradients have not converged yet.
  max grad (force/stress) = 7.0379E-02 > tolmxf= 5.0000E-04 ha/bohr (free atoms)

Inverse hessian has been initialized.
 EXIT:           1           1
 {mover_itime: 1 , wall_time: ' 15.15 [s] '} <<< TIME

[...]

--- !ScfConvergenceWarning
message: |
    nstep 10 was not enough SCF cycles to converge.
...

 scprqt:  WARNING -
  nstep=   10 was not enough SCF cycles to converge;
  maximum force difference=  1.408E-04 exceeds toldff=  5.000E-05

[...]

 Pulay update with  7 previous iterations:
 mixing of old trial potential: alpha(m:m-4)=  -2.15       3.12     -0.452      0.666     -0.699E-02

[...]

 Difference of energy with previous step (new-old):
           Absolute (Ha)=-1.56990E-05
           Relative     =-1.69967E-07
 fconv : at Broyd/MD step   7, gradients have not converged yet.
  max grad (force/stress) = 1.1394E-03 > tolmxf= 5.0000E-04 ha/bohr (free atoms)

 EXIT:           1           1
 {mover_itime: 7 , wall_time: ' 13.30 [s] '} <<< TIME

--- Iteration: ( 8/10) Internal Cycle: (1/1)

 Cartesian coordinates (xcart) [bohr]
  2.97631965228451E+00  1.74406275100676E+00 -1.55290614015381E-04
  2.97632082267274E+00 -1.73124841882448E+00 -2.98344140480356E+00
  2.97631550292742E+00 -1.73119271131149E+00  2.98359669541758E+00
 Reduced coordinates (xred)
  3.30842355765857E-01  6.69157977864287E-01 -4.10881268224433E-06
  6.67915303844212E-01  3.32085423019439E-01 -7.89384597292889E-02
  6.67909007056598E-01  3.32089932449608E-01  7.89425685419712E-02

---SELF-CONSISTENT-FIELD CONVERGENCE--------------------------------------------

 getcut: wavevector=  0.0000  0.0000  0.0000  ngfft=  30  30 180
         ecut(hartree)=     25.000   => boxcut(ratio)=   2.11597

[...]

 Simple mixing update:
  residual square of the potential:    6.22160212296077
{SCF_istep: 1 , Vnl|psi>: 1236 , wall_time: '  4.04 [s] '} <<< TIME

 ITER STEP NUMBER     2
 Max number of non-self-consistent loops: 2
 Total charge density [el/Bohr^3]
)     Maximum=    9.2993E-01  at reduced coord.    0.2333    0.7333    0.0000
)     Minimum=    0.0000E+00  at reduced coord.    0.3333    0.1667    0.4667
   Integrated=    2.6000E+01
 ETOT  2  -92.364804306707     7.518E-05 1.877E-07 1.453E+00 5.578E-03 2.630E-03
 scprqt: <Vxc>= -1.4486996E-01 hartree

[...]

 Pulay update with  6 previous iterations:
 mixing of old trial potential: alpha(m:m-4)=   1.88     -0.258     -0.449     -0.118     -0.180E-01
{SCF_istep: 7 , Vnl|psi>: 413 , wall_time: '  0.91 [s] '} <<< TIME

 ITER STEP NUMBER     8
 Total charge density [el/Bohr^3]
)     Maximum=    9.3136E-01  at reduced coord.    0.2333    0.7333    0.0000
)     Minimum=    0.0000E+00  at reduced coord.    0.3333    0.1667    0.4667
   Integrated=    2.6000E+01
 ETOT  8  -92.364968164448    -4.132E-08 4.298E-09 2.962E-02 2.025E-05 1.401E-04
 scprqt: <Vxc>= -1.4486487E-01 hartree

 At SCF step    8, forces are converged :
  for the second time, max diff in force=  2.025E-05 < toldff=  5.000E-05

 Ekinetic   = :     2.995079E+01 Ha ,    8.150024E+02 eV
 Evext_l    = :    -6.092611E+02 Ha ,   -1.657884E+04 eV
 Evext_nl   = :     1.162545E+01 Ha ,    3.163447E+02 eV
 Epsp_core  = :     7.631172E-01 Ha ,    2.076547E+01 eV
 Ehartree   = :     2.837045E+02 Ha ,    7.719992E+03 eV
 Exc_ks     = :    -1.661337E+01 Ha ,   -4.520727E+02 eV
 Enn        = :     2.074657E+02 Ha ,    5.645427E+03 eV
 Etot       = :    -9.236497E+01 Ha ,   -2.513379E+03 eV

[...]

 fftdatar_write: About to write data to: mos2_ecuto_DS41_TIM8_DEN with iomode: IO_MODE_FORTRAN
 Integrated electronic density in atomic spheres:
 Atom  Sphere_radius  Integrated_density
    1        2.00000         10.49822685
    2        2.00000          3.93591504
    3        2.00000          3.93583194
 Write iteration in HIST netCDF file

---OUTPUT-----------------------------------------------------------------------

 Cartesian coordinates (xcart) [bohr]
  2.97631965228451E+00  1.74406275100676E+00 -1.55290614015381E-04
  2.97632082267274E+00 -1.73124841882448E+00 -2.98344140480356E+00
  2.97631550292742E+00 -1.73119271131149E+00  2.98359669541758E+00
 Reduced coordinates (xred)
  3.30842355765857E-01  6.69157977864287E-01 -4.10881268224433E-06
  6.67915303844212E-01  3.32085423019439E-01 -7.89384597292889E-02
  6.67909007056598E-01  3.32089932449608E-01  7.89425685419712E-02
 Cartesian forces (fcart) [Ha/bohr]; max,rms= 1.40053E-04 6.40915E-05 (free atoms)
 -5.59396324854625E-07  1.40053194443449E-04  6.87308741036228E-05
  3.11443645517146E-07 -6.67709184283868E-05 -1.95410090435016E-05
  2.47952679337479E-07 -7.32822760150619E-05 -4.91898650601212E-05
 Gradient of E wrt nuclear positions in reduced coordinates (gred)
  7.23658085498407E-04 -7.20328202059195E-04 -2.59765057859378E-03
 -3.45140063279290E-04  3.43286152212347E-04  7.38543109049194E-04
 -3.78518022219117E-04  3.77042049846848E-04  1.85910746954459E-03
 Total energy (etotal) [Ha]= -9.23649681644479E+01

 Difference of energy with previous step (new-old):
           Absolute (Ha)=-6.48091E-06
           Relative     =-7.01663E-08

 At Broyd/MD step   8, gradients are converged :
  max grad (force/stress) = 1.4005E-04 < tolmxf= 5.0000E-04 ha/bohr (free atoms)

 ----iterations are completed or convergence reached----

 === Gap info ===
  >>>> For spin  1
   Minimum direct gap =   2.6290 [eV], located at k-point      :  -0.1667  0.1667  0.5000
   Fundamental gap    =   2.2471 [eV], Top of valence bands at :  -0.1667  0.1667  0.5000
                                       Bottom of conduction at :   0.1667  0.1667  0.5000
 Mean square residual over all n,k,spin=   26.205E-11; max=  42.976E-10
   0.1667  0.1667  0.5000    1  4.23432E-09 kpt; spin; max resid(k); each band:
  6.76E-11 3.98E-11 3.04E-11 7.75E-11 7.17E-11 7.52E-11 4.43E-11 7.27E-11
  6.42E-11 8.01E-11 1.30E-10 1.16E-10 4.93E-11 4.23E-09
   0.5000  0.1667  0.5000    1  4.29762E-09 kpt; spin; max resid(k); each band:
  6.54E-11 7.25E-11 4.77E-11 2.42E-11 6.33E-11 4.42E-11 4.29E-11 3.17E-11
  4.78E-11 7.47E-11 6.49E-11 7.51E-11 8.85E-11 4.30E-09
  -0.1667  0.1667  0.5000    1  1.46248E-09 kpt; spin; max resid(k); each band:
  6.97E-11 3.43E-11 7.82E-11 5.21E-12 7.57E-11 9.24E-11 6.28E-11 8.88E-11
  1.15E-10 6.71E-11 2.92E-11 1.58E-10 1.10E-10 1.46E-09
   0.1667  0.5000  0.5000    1  4.29502E-09 kpt; spin; max resid(k); each band:
  6.54E-11 7.25E-11 4.78E-11 2.42E-11 6.34E-11 4.42E-11 4.29E-11 3.19E-11
  4.78E-11 7.47E-11 6.49E-11 7.51E-11 8.85E-11 4.30E-09
   0.5000  0.5000  0.5000    1  1.01051E-10 kpt; spin; max resid(k); each band:
  6.52E-11 1.01E-10 2.16E-11 3.12E-11 6.20E-11 3.78E-11 3.17E-11 5.66E-11
  4.41E-11 1.70E-11 4.30E-11 3.42E-11 6.27E-11 5.41E-11

   outwf: writing wavefunctions to: mos2_ecuto_DS41_WFK with iomode: IO_MODE_FORTRAN_MASTER
 prteigrs : about to open file mos2_ecuto_DS41_EIG
 Fermi (or HOMO) energy (hartree) =  -0.07406   Average Vxc (hartree)=  -0.14486
 Eigenvalues (hartree) for nkpt=   5  k points:
 kpt#   1, nband= 14, wtk=  0.22222, kpt=  0.1667  0.1667  0.5000 (reduced coord)
  -2.29845   -1.34677   -1.34574   -1.34390   -0.54001   -0.51674   -0.24253   -0.20005
  -0.19637   -0.17842   -0.13040   -0.09933   -0.09280    0.00852
 kpt#   2, nband= 14, wtk=  0.22222, kpt=  0.5000  0.1667  0.5000 (reduced coord)
  -2.29785   -1.35256   -1.34494   -1.34460   -0.50920   -0.50337   -0.25793   -0.24245
  -0.20145   -0.17919   -0.14736   -0.12649   -0.07843    0.02170
 kpt#   3, nband= 14, wtk=  0.22222, kpt= -0.1667  0.1667  0.5000 (reduced coord)
  -2.29910   -1.34693   -1.34480   -1.33904   -0.56575   -0.52725   -0.25340   -0.18318
  -0.16809   -0.13830   -0.13534   -0.10064   -0.07406    0.02255
 kpt#   4, nband= 14, wtk=  0.22222, kpt=  0.1667  0.5000  0.5000 (reduced coord)
  -2.29785   -1.35256   -1.34494   -1.34460   -0.50920   -0.50337   -0.25793   -0.24245
  -0.20145   -0.17919   -0.14736   -0.12649   -0.07843    0.02170
 kpt#   5, nband= 14, wtk=  0.11111, kpt=  0.5000  0.5000  0.5000 (reduced coord)
  -2.29784   -1.35587   -1.34454   -1.34155   -0.50896   -0.50325   -0.27460   -0.24071
  -0.21195   -0.17647   -0.13170   -0.09316   -0.08358    0.02509
 Total charge density [el/Bohr^3]
)     Maximum=    9.3136E-01  at reduced coord.    0.2333    0.7333    0.0000
)Next maximum=    9.3136E-01  at reduced coord.    0.2667    0.7667    0.0000
)     Minimum=    0.0000E+00  at reduced coord.    0.3333    0.1667    0.4667
)Next minimum=    0.0000E+00  at reduced coord.    0.8333    0.6667    0.4667
   Integrated=    2.6000E+01

 Cartesian components of stress tensor (hartree/bohr^3)
  sigma(1 1)=  2.99001261E-05  sigma(3 2)=  1.66800703E-08
  sigma(2 2)=  8.07488153E-05  sigma(3 1)= -1.29200845E-09
  sigma(3 3)=  8.26348624E-05  sigma(2 1)= -3.13596381E-10

-Cartesian components of stress tensor (GPa)         [Pressure= -1.8955E+00 GPa]
- sigma(1 1)=  8.79691934E-01  sigma(3 2)=  4.90744528E-04
- sigma(2 2)=  2.37571177E+00  sigma(3 1)= -3.80121946E-05
- sigma(3 3)=  2.43120118E+00  sigma(2 1)= -9.22632252E-06

== END DATASET(S) ==============================================================

 -outvars: echo values of variables after computation  --------

 These variables are accessible in NetCDF format (mos2_ecuto_OUT.nc)

            acell      5.9526373186E+00  5.9526373186E+00  3.7794522658E+01 Bohr
              amu      9.59400000E+01  3.20660000E+01
      chksymbreak           0
             ecut11    1.00000000E+01 Hartree
             ecut21    1.50000000E+01 Hartree
             ecut31    2.00000000E+01 Hartree
             ecut41    2.50000000E+01 Hartree
           etotal11   -9.1610699442E+01
           etotal21   -9.2121835416E+01
           etotal31   -9.2305481420E+01
           etotal41   -9.2364968164E+01
            fcart11   -1.1933717414E-07  3.7420529669E-05 -6.9401179982E-06
                      -1.4559515608E-07 -1.8972018909E-05  2.8435756817E-05
                       2.6493233022E-07 -1.8448510760E-05 -2.1495638819E-05
            fcart21   -2.7906210141E-07 -4.7544968469E-04  5.4566628327E-07
                      -1.5541936927E-07  2.3790168916E-04  3.1105907182E-04
                       4.3448147068E-07  2.3754799553E-04 -3.1160473810E-04
            fcart31   -1.3968679778E-06  9.0738396191E-05 -1.9159040718E-04
                       7.8083995243E-07 -5.3786018307E-05  1.1462088580E-05
                       6.1602802541E-07 -3.6952377884E-05  1.8012831860E-04
            fcart41   -5.5939632485E-07  1.4005319444E-04  6.8730874104E-05
                       3.1144364552E-07 -6.6770918428E-05 -1.9541009044E-05
                       2.4795267934E-07 -7.3282276015E-05 -4.9189865060E-05
-          fftalg         512
           ionmov           2
           istwfk        0    0    0    0    9
              ixc          11
           jdtset       11   21   31   41
              kpt      1.66666667E-01  1.66666667E-01  5.00000000E-01
                       5.00000000E-01  1.66666667E-01  5.00000000E-01
                      -1.66666667E-01  1.66666667E-01  5.00000000E-01
                       1.66666667E-01  5.00000000E-01  5.00000000E-01
                       5.00000000E-01  5.00000000E-01  5.00000000E-01
         kptrlatt        3    0    0      0    3    0      0    0    1
          kptrlen      1.78579120E+01
P           mkmem           5
            natom           3
            nband          14
           ndtset           4
            ngfft11        18      18     108
            ngfft21        24      24     135
            ngfft31        24      24     160
            ngfft41        30      30     180
             nkpt           5
            nstep          10
             nsym           1
            ntime          10
           ntypat           2
              occ      2.000000  2.000000  2.000000  2.000000  2.000000  2.000000
                       2.000000  2.000000  2.000000  2.000000  2.000000  2.000000
                       2.000000  0.000000
        optforces           1
            rprim      5.0000000000E-01 -8.6602540378E-01  0.0000000000E+00
                       5.0000000000E-01  8.6602540378E-01  0.0000000000E+00
                       0.0000000000E+00  0.0000000000E+00  1.0000000000E+00
           shiftk      5.00000000E-01  5.00000000E-01  5.00000000E-01
          spgroup           1
           strten11    9.8025300529E-04  1.0279197424E-03  1.0321172102E-03
                      -1.5589994026E-09 -1.0664318082E-09 -1.3030974880E-10
           strten21    4.4220900667E-04  4.9609180696E-04  4.9357114302E-04
                       9.2507471461E-10 -1.6133447031E-09 -1.7425988300E-10
           strten31    1.8336836767E-04  2.3301243533E-04  2.3621307673E-04
                      -4.3712497362E-08  6.4626147068E-10 -9.4270880663E-10
           strten41    2.9900126119E-05  8.0748815264E-05  8.2634862356E-05
                       1.6680070286E-08 -1.2920084518E-09 -3.1359638109E-10
           toldff      5.00000000E-05
           tolmxf      5.00000000E-04
            typat      1  2  2
              wtk        0.22222    0.22222    0.22222    0.22222    0.11111
           xangst11    1.5750001702E+00  9.2415022863E-01  7.7606235189E-06
                       1.5750009911E+00 -9.1673726246E-01 -1.5965546592E+00
                       1.5749988387E+00 -9.1673964014E-01  1.5965468986E+00
           xangst21    1.5750004695E+00  9.2348359503E-01 -7.4442874567E-07
                       1.5750013948E+00 -9.1640618265E-01 -1.5818234239E+00
                       1.5749981357E+00 -9.1640408636E-01  1.5818241683E+00
           xangst31    1.5750025309E+00  9.2286537678E-01  1.9233965357E-04
                       1.5749980685E+00 -9.1605427145E-01 -1.5797568791E+00
                       1.5749994006E+00 -9.1613777931E-01  1.5795645395E+00
           xangst41    1.5750005255E+00  9.2291825818E-01 -8.2176253645E-05
                       1.5750011448E+00 -9.1613720565E-01 -1.5787691946E+00
                       1.5749983297E+00 -9.1610772650E-01  1.5788513708E+00
            xcart11    2.9763189809E+00  1.7463908378E+00  1.4665453071E-05
                       2.9763205322E+00 -1.7323823619E+00 -3.0170510621E+00
                       2.9763164647E+00 -1.7323868550E+00  3.0170363966E+00
            xcart21    2.9763195464E+00  1.7451310828E+00 -1.4067664548E-06
                       2.9763212951E+00 -1.7317567117E+00 -2.9892130617E+00
                       2.9763151364E+00 -1.7317527503E+00  2.9892144684E+00
            xcart31    2.9763234421E+00  1.7439628196E+00  3.6346926975E-04
                       2.9763150092E+00 -1.7310916959E+00 -2.9853078581E+00
                       2.9763175266E+00 -1.7312495029E+00  2.9849443888E+00
            xcart41    2.9763196523E+00  1.7440627510E+00 -1.5529061402E-04
                       2.9763208227E+00 -1.7312484188E+00 -2.9834414048E+00
                       2.9763155029E+00 -1.7311927113E+00  2.9835966954E+00
             xred11    3.3061644030E-01  6.6938366777E-01  3.8803117594E-07
                       6.6802523694E-01  3.3197539233E-01 -7.9827732960E-02
                       6.6802498943E-01  3.3197427323E-01  7.9827344929E-02
             xred21    3.3073871977E-01  6.6926157830E-01 -3.7221437283E-08
                       6.6796468287E-01  3.3203620272E-01 -7.9091171193E-02
                       6.6796326403E-01  3.3203555232E-01  7.9091208415E-02
             xred31    3.3085268483E-01  6.6914892211E-01  9.6169826787E-06
                       6.6789912657E-01  3.3209964706E-01 -7.8987843956E-02
                       6.6791485527E-01  3.3208476416E-01  7.8978226973E-02
             xred41    3.3084235577E-01  6.6915797786E-01 -4.1088126822E-06
                       6.6791530384E-01  3.3208542302E-01 -7.8938459729E-02
                       6.6790900706E-01  3.3208993245E-01  7.8942568542E-02
            znucl       42.00000   16.00000

 Calculation completed.
.Delivered  19 WARNINGs and  14 COMMENTs to log file.

--- !FinalSummary
program: abinit
version: 9.10.3
start_datetime: Wed May 07 07:09:18 2025
end_datetime: Wed May 07 07:14:29 2025
overall_cpu_time:         297.4
overall_wall_time:         310.5
exit_requested_by_user: no
timelimit: 0
pseudos:
    Mo  : 228091cb5782e08cb8d68936b3c7e57b
    S   : ee4b2e2802f5df21cf2ecc26b1029f69
usepaw: 0
mpi_procs: 1
omp_threads: 1
num_warnings: 19
num_comments: 14
...