.Version 9.10.3 of ABINIT

 ABINIT is a project of the Universite Catholique de Louvain,
 Corning Inc. and other collaborators, see ~abinit/doc/developers/contributors.txt .
 acknowledgments of the ABINIT effort.

.Starting date : Wed  7 May 2025.
- ( at 05h52 )

 === Build Information ===
  Version       : 9.10.3
  Build target  : x86_64_linux_intel2021.6
  Build date    : 20240126

 === Optimizations ===
  Debug level        : basic
  Optimization level : standard
  Architecture       : intel_xeon

 === Multicore ===
  Parallel build : /shared/ucl/apps/intel/2020/impi/2019.6.166/intel64
  Parallel I/O   :
  openMP support :
  GPU support    :

 === Connectors / Fallbacks ===
  LINALG flavor  : mkl
  FFT flavor     : dfti
  HDF5           : yes
  NetCDF         : yes
  NetCDF Fortran : yes
  Wannier90      : no

 === Experimental features ===
  Exports             :
  GW double-precision :

 Default optimizations:
   -O3

 Optimizations for 43_ptgroups:
   -O0

 CPP options activated during the build:

                  CC_INTEL                   CXX_GNU                  FC_INTEL

                 HAVE_DFTI HAVE_FC_ALLOCATABLE_DT...             HAVE_FC_ASYNC

  HAVE_FC_COMMAND_ARGUMENT      HAVE_FC_COMMAND_LINE        HAVE_FC_CONTIGUOUS

           HAVE_FC_CPUTIME              HAVE_FC_EXIT             HAVE_FC_FLUSH

             HAVE_FC_GAMMA   HAVE_FC_IEEE_ARITHMETIC   HAVE_FC_IEEE_EXCEPTIONS

             HAVE_FC_IOMSG     HAVE_FC_ISO_C_BINDING  HAVE_FC_ISO_FORTRAN_2008

        HAVE_FC_LONG_LINES        HAVE_FC_MOVE_ALLOC  HAVE_FC_ON_THE_FLY_SHAPE

           HAVE_FC_PRIVATE         HAVE_FC_PROTECTED           HAVE_FC_SHIFTLR

         HAVE_FC_STREAM_IO                 HAVE_HDF5             HAVE_HDF5_MPI

         HAVE_LINALG_AXPBY        HAVE_LINALG_GEMM3M         HAVE_LINALG_GEMMT

  HAVE_LINALG_MKL_IMATCOPY   HAVE_LINALG_MKL_OMATADD  HAVE_LINALG_MKL_OMATCOPY

                 HAVE_MPI2       HAVE_MPI_IALLGATHER       HAVE_MPI_IALLREDUCE

        HAVE_MPI_IALLTOALL       HAVE_MPI_IALLTOALLV           HAVE_MPI_IBCAST

         HAVE_MPI_IGATHERV        HAVE_MPI_INTEGER16               HAVE_MPI_IO

 HAVE_MPI_TYPE_CREATE_S...               HAVE_NETCDF       HAVE_NETCDF_FORTRAN

   HAVE_NETCDF_FORTRAN_MPI           HAVE_NETCDF_MPI             HAVE_OS_LINUX

         HAVE_TIMER_ABINIT

- input  file    -> mos2.abi
- output file    -> mos2.abo
- root for input  files -> mos2i
- root for output files -> mos2o

-instrng: 53 lines of input have been read from file mos2.abi

 For atom type 1, psp file is ./persudo/Mo.psp8
 For atom type 2, psp file is ./persudo/S.psp8
  read the values zionpsp= 14.0 , pspcod=   8 , lmax=   2
  read the values zionpsp=  6.0 , pspcod=   8 , lmax=   2

 inpspheads: deduce mpsang = 3, n1xccc = 2501.

 invars1m : enter jdtset= 1

 symlatt: the Bravais lattice is hP (primitive hexagonal)
  xred   is defined in input file
 ingeo: takes atomic coordinates from input array xred

 symlatt: the Bravais lattice is hP (primitive hexagonal)

[...]

--- !COMMENT
src_file: m_symfind.F90
src_line: 995
message: |
    The Bravais lattice determined only from the primitive
    vectors, bravais(1)=  6, is more symmetric
    than the real one, iholohedry=  1, obtained by taking into
    account the atomic positions. Start deforming the primitive vector set.
...

 symlatt: the Bravais lattice is oC (one-face-centered orthorhombic)

--- !COMMENT
src_file: m_symfind.F90
src_line: 1004
message: |
    The Bravais lattice determined from modified primitive
    vectors, bravais(1)=  3, has a lower symmetry than before,
    but is still more symmetric than the real one, iholohedry=  1
    obtained by taking into account the atomic positions.
...

 symlatt: the Bravais lattice is aP (primitive triclinic)
 symspgr: spgroup=   1  P1   (=C1^1)

 invars1m : enter jdtset= 2

 symlatt: the Bravais lattice is hP (primitive hexagonal)
  xred   is defined in input file
 ingeo: takes atomic coordinates from input array xred

[...]

 symlatt: the Bravais lattice is hP (primitive hexagonal)

--- !COMMENT
src_file: m_symfind.F90
src_line: 995
message: |
    The Bravais lattice determined only from the primitive
    vectors, bravais(1)=  6, is more symmetric
    than the real one, iholohedry=  1, obtained by taking into
    account the atomic positions. Start deforming the primitive vector set.
...

 symlatt: the Bravais lattice is oC (one-face-centered orthorhombic)

--- !COMMENT
src_file: m_symfind.F90
src_line: 1004
message: |
    The Bravais lattice determined from modified primitive
    vectors, bravais(1)=  3, has a lower symmetry than before,
    but is still more symmetric than the real one, iholohedry=  1
    obtained by taking into account the atomic positions.
...

 symlatt: the Bravais lattice is aP (primitive triclinic)
 symspgr: spgroup=   1  P1   (=C1^1)
 Real(R)+Recip(G) space primitive vectors, cartesian coordinates (Bohr,Bohr^-1):
 R(1)=  2.9763187 -5.1551351  0.0000000  G(1)=  0.1679928 -0.0969907  0.0000000
 R(2)=  2.9763187  5.1551351  0.0000000  G(2)=  0.1679928  0.0969907  0.0000000
 R(3)=  0.0000000  0.0000000 37.7945227  G(3)=  0.0000000  0.0000000  0.0264589
 Unit cell volume ucvol=  1.1597873E+03 bohr^3
 Unit cell volume ucvol=  1.1597873E+03 bohr^3
 Angles (23,13,12)=  9.00000000E+01  9.00000000E+01  1.20000000E+02 degrees
 Angles (23,13,12)=  9.00000000E+01  9.00000000E+01  1.20000000E+02 degrees
  0.111995176421164       0.111995176421164

 mknormpath : total number of points on the path:       21

 Number of divisions for each segment of the normalized path:
 0.00000 0.00000 0.00000 ==>  0.33333 0.33333 0.00000 ( ndiv:    10 )
 0.33333 0.33333 0.00000 ==>  0.00000 0.00000 0.00000 ( ndiv:    10 )

 invars2: take the default value of fband=  1.25000000E-01

--- !WARNING
src_file: m_invars2.F90
src_line: 2098
message: |
    nbdbuf is not specified in input, using `nbdbuf = 2*nspinor` that may be too small!
    As a consequence, the NSCF cycle may have problems to converge the last bands within nstep iterations.
    To avoid this problem specify nbdbuf in the input file and adjust nband accordingly.
...

 Real(R)+Recip(G) space primitive vectors, cartesian coordinates (Bohr,Bohr^-1):
 R(1)=  2.9763187 -5.1551351  0.0000000  G(1)=  0.1679928 -0.0969907  0.0000000
 R(2)=  2.9763187  5.1551351  0.0000000  G(2)=  0.1679928  0.0969907  0.0000000
 R(3)=  0.0000000  0.0000000 37.7945227  G(3)=  0.0000000  0.0000000  0.0264589
 Unit cell volume ucvol=  1.1597873E+03 bohr^3
 Unit cell volume ucvol=  1.1597873E+03 bohr^3
 Angles (23,13,12)=  9.00000000E+01  9.00000000E+01  1.20000000E+02 degrees
 Angles (23,13,12)=  9.00000000E+01  9.00000000E+01  1.20000000E+02 degrees
  0.111995176421164       0.111995176421164

 mknormpath : total number of points on the path:       21

 Number of divisions for each segment of the normalized path:
 0.00000 0.00000 0.00000 ==>  0.33333 0.33333 0.00000 ( ndiv:    10 )
 0.33333 0.33333 0.00000 ==>  0.00000 0.00000 0.00000 ( ndiv:    10 )

 LMac pawujat is:            0
 LMac pawujat is:            0
 For input ecut=  1.200000E+01 best grid ngfft=      20      20     120
       max ecut=  1.243697E+01

 ==== FFT mesh ====
  FFT mesh divisions ........................    20   20  120
  Augmented FFT divisions ...................    21   21  120
  FFT algorithm .............................   512
  FFT cache size ............................    16
 getmpw: optimal value of mpw= 2322
 For input ecut=  1.200000E+01 best grid ngfft=      20      20     120
       max ecut=  1.243697E+01

 ==== FFT mesh ====
  FFT mesh divisions ........................    20   20  120
  Augmented FFT divisions ...................    21   21  120
  FFT algorithm .............................   512
  FFT cache size ............................    16
 getmpw: optimal value of mpw= 2321

 DATASET    1 : space group P1 (#  1); Bravais aP (primitive triclinic)

 getdim_nloc: deduce lmnmax  =  18, lnmax  =   6,
                      lmnmaxso=  18, lnmaxso=   6.
     intxc =       0    ionmov =       0      iscf =       7    lmnmax =       6
     lnmax =       6     mgfft =     120  mpssoang =       3    mqgrid =    5894
     natom =       3  nloc_mem =       1    nspden =       1   nspinor =       1
    nsppol =       1      nsym =       1    n1xccc =    2501    ntypat =       2
    occopt =       1   xclevel =       2
-    mband =          14        mffmem =           1         mkmem =          20
       mpw =        2322          nfft =       48000          nkpt =          20
  Rough estimation (10% accuracy) of disk space for files :

 The job will continue.

 DATASET    2 : space group P1 (#  1); Bravais aP (primitive triclinic)

 getdim_nloc: deduce lmnmax  =  18, lnmax  =   6,
                      lmnmaxso=  18, lnmaxso=   6.
     intxc =       0    ionmov =       0      iscf =      -2    lmnmax =       6
     lnmax =       6     mgfft =     120  mpssoang =       3    mqgrid =    5894
     natom =       3  nloc_mem =       1    nspden =       1   nspinor =       1
    nsppol =       1      nsym =       1    n1xccc =    2501    ntypat =       2
    occopt =       1   xclevel =       2
-    mband =           4        mffmem =           1         mkmem =          21
       mpw =        2321          nfft =       48000          nkpt =          21
  Rough estimation (10% accuracy) of disk space for files :

 The job will continue.
------------- Echo of variables that govern the present computation ------------
-
- outvars: echo of selected default values
-   iomode0 =  0 , fftalg0 =512 , wfoptalg0 =  0
-
- outvars: echo of global parameters not present in the input file
-  max_nthreads =    0
-
 -outvars: echo values of preprocessed input variables --------

 These variables are accessible in NetCDF format (mos2o_OUT.nc)

            acell      5.9526373186E+00  5.9526373186E+00  3.7794522658E+01 Bohr
              amu      9.59400000E+01  3.20660000E+01
      chksymbreak           0
             ecut      1.20000000E+01 Hartree
           enunit1          0
           enunit2          1
-          fftalg         512
           getden1          0
           getden2         -1
             iscf1          7
             iscf2         -2
           istwfk1       4    0    0    5    0    0    0    0    0    0
                         0    0    0    0    0    0    8    0    0    9
           istwfk2       2    0    0    0    0    0    0    0    0    0
                         0    0    0    0    0    0    0    0    0    0
                         2
              ixc          11
           jdtset        1    2
              kpt1     0.00000000E+00  0.00000000E+00  5.00000000E-01
                       1.66666667E-01  0.00000000E+00  5.00000000E-01
                       3.33333333E-01  0.00000000E+00  5.00000000E-01
                       5.00000000E-01  0.00000000E+00  5.00000000E-01
                       0.00000000E+00  1.66666667E-01  5.00000000E-01
                       1.66666667E-01  1.66666667E-01  5.00000000E-01
                       3.33333333E-01  1.66666667E-01  5.00000000E-01
                       5.00000000E-01  1.66666667E-01  5.00000000E-01
[...]
  rprimd:                                   |  rprimd:
     2.9763187  -5.1551351   0.0000000      |     2.9763187  -5.1551351   0.0000000
     2.9763187   5.1551351   0.0000000      |     2.9763187   5.1551351   0.0000000
     0.0000000   0.0000000  37.7945227      |     0.0000000   0.0000000  37.7945227
  symafm:                                   |  symafm:
    1                                       |    1
  symrel:                                   |  symrel:
    1  0  0  0  1  0  0  0  1               |    1  0  0  0  1  0  0  0  1
  typat:                                    |  typat:
    1  2  2                                 |    1  2  2
  so_psp  :                                 |  so_psp  :
    1  1                                    |    1  1

--- !COMMENT
src_file: m_hdr.F90
src_line: 4232
message: |
    input kptrlatt = 0 0 0 0 0 0 0 0 0  /= disk file kptrlatt = 6 0 0 0 6 0 0 0 1
...

--- !COMMENT
src_file: m_hdr.F90
src_line: 4235
message: |
    input kptopt = -2  /= disk file kptopt = 1
...

--- !WARNING
src_file: m_hdr.F90
src_line: 4256
message: |
    input ival=0 not equal disk file ival=13
...

  tnons:                                    |  tnons:
     0.0000000   0.0000000   0.0000000      |     0.0000000   0.0000000   0.0000000
   znucl:                                   |   znucl:
   42.00 16.00                              |       42.00 16.00
  pseudopotential atom type  1:             |  pseudopotential atom type  1:
  pspso   0 pspxc  11                       |  pspso   0 pspxc  11
  pspdat   170510 pspcod    8 zion  14.0    |  pspdat   170510 pspcod    8 zion  14.0
  pseudopotential atom type  2:             |  pseudopotential atom type  2:
  pspso   0 pspxc  11                       |  pspso   0 pspxc  11
  pspdat   220131 pspcod    8 zion   6.0    |  pspdat   220131 pspcod    8 zion   6.0
  xred:                                     |  xred:
     0.3333333   0.6666667   0.0000000      |     0.3333333   0.6666667   0.0000000
     0.6666667   0.3333333  -0.0919442      |     0.6666667   0.3333333  -0.0919442
     0.6666667   0.3333333   0.0919442      |     0.6666667   0.3333333   0.0919442
 hdr_check:  Density/Potential file is OK for restart of calculation

 getcut: wavevector=  0.0000  0.0000  0.0000  ngfft=  20  20 120
         ecut(hartree)=     12.000   => boxcut(ratio)=   2.03609
 Max number of non-self-consistent loops: 10
 k-point: [ 1 / 21 ], spin: 1
   Printing residuals every mod(20) iterations...
   NSCF loop completed after 7 iterations

 Ekinetic   = :     0.000000E+00 Ha ,    0.000000E+00 eV
 Evext_l    = :     0.000000E+00 Ha ,    0.000000E+00 eV
 Evext_nl   = :     0.000000E+00 Ha ,    0.000000E+00 eV
 Epsp_core  = :     7.631172E-01 Ha ,    2.076547E+01 eV
 Ehartree   = :     0.000000E+00 Ha ,    0.000000E+00 eV
 Exc_ks     = :    -1.636614E+01 Ha ,   -4.453453E+02 eV
 Enn        = :     1.895732E+02 Ha ,    5.158549E+03 eV
 Etot       = :     1.739702E+02 Ha ,    4.733969E+03 eV

 fftdatar_write: About to write data to: mos2o_DS2_DEN with iomode: IO_MODE_FORTRAN
 Integrated electronic density in atomic spheres:
 Atom  Sphere_radius  Integrated_density
    1        2.00000         10.37238136
    2        2.00000          3.83131304
    3        2.00000          3.83137151

 ----iterations are completed or convergence reached----

 === Gap info ===
Not enough states to calculate the band gap.
 Mean square residual over all n,k,spin=   50.036E-14; max=  95.162E-14
   0.0000  0.0000  0.0000    1  7.11342E-13 kpt; spin; max resid(k); each band:
  6.26E-13 6.05E-13 7.11E-13 6.42E-13
   0.0333  0.0333  0.0000    1  7.93273E-13 kpt; spin; max resid(k); each band:
  2.84E-13 2.51E-13 2.92E-13 7.93E-13
   0.0667  0.0667  0.0000    1  4.21256E-13 kpt; spin; max resid(k); each band:
  3.15E-13 3.13E-13 4.21E-13 2.64E-13
   0.1000  0.1000  0.0000    1  8.80550E-13 kpt; spin; max resid(k); each band:
  5.12E-13 8.81E-13 5.91E-13 5.86E-13
   0.1333  0.1333  0.0000    1  9.40812E-13 kpt; spin; max resid(k); each band:
  3.87E-13 5.81E-13 9.41E-13 3.72E-13
   0.1667  0.1667  0.0000    1  5.03331E-13 kpt; spin; max resid(k); each band:
  5.03E-13 2.31E-13 5.03E-13 4.60E-13
   0.2000  0.2000  0.0000    1  5.50059E-13 kpt; spin; max resid(k); each band:
  4.99E-13 5.10E-13 5.50E-13 5.19E-13
   0.2333  0.2333  0.0000    1  9.05265E-13 kpt; spin; max resid(k); each band:
  9.05E-13 6.45E-13 2.29E-13 4.81E-13
   0.2667  0.2667  0.0000    1  6.28902E-13 kpt; spin; max resid(k); each band:
  6.29E-13 3.20E-13 5.72E-13 5.17E-13
   0.3000  0.3000  0.0000    1  9.81890E-13 kpt; spin; max resid(k); each band:
  3.77E-13 4.09E-13 3.79E-13 9.82E-13
   0.3333  0.3333  0.0000    1  9.51625E-13 kpt; spin; max resid(k); each band:
  4.99E-13 9.52E-13 7.46E-13 2.14E-13
   0.3000  0.3000  0.0000    1  9.81890E-13 kpt; spin; max resid(k); each band:
  3.77E-13 4.09E-13 3.79E-13 9.82E-13
   0.2667  0.2667  0.0000    1  6.28902E-13 kpt; spin; max resid(k); each band:
  6.29E-13 3.20E-13 5.72E-13 5.17E-13
   0.2333  0.2333  0.0000    1  9.05265E-13 kpt; spin; max resid(k); each band:
  9.05E-13 6.45E-13 2.29E-13 4.81E-13
   0.2000  0.2000  0.0000    1  5.50059E-13 kpt; spin; max resid(k); each band:
  4.99E-13 5.10E-13 5.50E-13 5.19E-13
   0.1667  0.1667  0.0000    1  5.03331E-13 kpt; spin; max resid(k); each band:
  5.03E-13 2.31E-13 5.03E-13 4.60E-13
   0.1333  0.1333  0.0000    1  9.40812E-13 kpt; spin; max resid(k); each band:
  3.87E-13 5.81E-13 9.41E-13 3.72E-13
   0.1000  0.1000  0.0000    1  8.80550E-13 kpt; spin; max resid(k); each band:
  5.12E-13 8.81E-13 5.91E-13 5.86E-13
   0.0667  0.0667  0.0000    1  4.21256E-13 kpt; spin; max resid(k); each band:
  3.15E-13 3.13E-13 4.21E-13 2.64E-13
   0.0333  0.0333  0.0000    1  7.93273E-13 kpt; spin; max resid(k); each band:
  2.84E-13 2.51E-13 2.92E-13 7.93E-13
   0.0000  0.0000  0.0000    1  7.11342E-13 kpt; spin; max resid(k); each band:
  6.26E-13 6.05E-13 7.11E-13 6.42E-13

   outwf: writing wavefunctions to: mos2o_DS2_WFK with iomode: IO_MODE_FORTRAN_MASTER
 prteigrs : about to open file mos2o_DS2_EIG
 Eigenvalues (   eV  ) for nkpt=  21  k points:
 kpt#   1, nband=  4, wtk=  1.00000, kpt=  0.0000  0.0000  0.0000 (reduced coord)
 -60.86925  -37.34772  -37.06867  -37.06855
 kpt#   2, nband=  4, wtk=  1.00000, kpt=  0.0333  0.0333  0.0000 (reduced coord)
 -60.84779  -37.34564  -37.07969  -37.07119
 kpt#   3, nband=  4, wtk=  1.00000, kpt=  0.0667  0.0667  0.0000 (reduced coord)
 -60.84514  -37.34002  -37.11211  -37.07942
 kpt#   4, nband=  4, wtk=  1.00000, kpt=  0.1000  0.1000  0.0000 (reduced coord)
 -60.83052  -37.33168  -37.16008  -37.09317
 kpt#   5, nband=  4, wtk=  1.00000, kpt=  0.1333  0.1333  0.0000 (reduced coord)
 -60.83112  -37.32152  -37.21582  -37.11298
 kpt#   6, nband=  4, wtk=  1.00000, kpt=  0.1667  0.1667  0.0000 (reduced coord)
 -60.75904  -37.31032  -37.27059  -37.13733
 kpt#   7, nband=  4, wtk=  1.00000, kpt=  0.2000  0.2000  0.0000 (reduced coord)
 -60.74217  -37.31616  -37.30009  -37.16720
 kpt#   8, nband=  4, wtk=  1.00000, kpt=  0.2333  0.2333  0.0000 (reduced coord)
 -60.74085  -37.34554  -37.29166  -37.20084
 kpt#   9, nband=  4, wtk=  1.00000, kpt=  0.2667  0.2667  0.0000 (reduced coord)
 -60.64986  -37.35362  -37.28509  -37.23696
 kpt#  10, nband=  4, wtk=  1.00000, kpt=  0.3000  0.3000  0.0000 (reduced coord)
 -60.64271  -37.34223  -37.28184  -37.27418
 kpt#  11, nband=  4, wtk=  1.00000, kpt=  0.3333  0.3333  0.0000 (reduced coord)
 -60.59435  -37.32011  -37.30338  -37.28096
 kpt#  12, nband=  4, wtk=  1.00000, kpt=  0.3000  0.3000  0.0000 (reduced coord)
 -60.64271  -37.34223  -37.28184  -37.27418
 kpt#  13, nband=  4, wtk=  1.00000, kpt=  0.2667  0.2667  0.0000 (reduced coord)
 -60.64986  -37.35362  -37.28509  -37.23696
 kpt#  14, nband=  4, wtk=  1.00000, kpt=  0.2333  0.2333  0.0000 (reduced coord)
 -60.74085  -37.34554  -37.29166  -37.20084
 kpt#  15, nband=  4, wtk=  1.00000, kpt=  0.2000  0.2000  0.0000 (reduced coord)
 -60.74217  -37.31616  -37.30009  -37.16720
 kpt#  16, nband=  4, wtk=  1.00000, kpt=  0.1667  0.1667  0.0000 (reduced coord)
 -60.75904  -37.31032  -37.27059  -37.13733
 kpt#  17, nband=  4, wtk=  1.00000, kpt=  0.1333  0.1333  0.0000 (reduced coord)
 -60.83112  -37.32152  -37.21582  -37.11298
 kpt#  18, nband=  4, wtk=  1.00000, kpt=  0.1000  0.1000  0.0000 (reduced coord)
 -60.83052  -37.33168  -37.16008  -37.09317
 kpt#  19, nband=  4, wtk=  1.00000, kpt=  0.0667  0.0667  0.0000 (reduced coord)
 -60.84514  -37.34002  -37.11211  -37.07942
 kpt#  20, nband=  4, wtk=  1.00000, kpt=  0.0333  0.0333  0.0000 (reduced coord)
 -60.84779  -37.34564  -37.07969  -37.07119
 kpt#  21, nband=  4, wtk=  1.00000, kpt=  0.0000  0.0000  0.0000 (reduced coord)
 -60.86925  -37.34772  -37.06867  -37.06855
 Total charge density [el/Bohr^3]
)     Maximum=    8.2283E-01  at reduced coord.    0.2500    0.5000    0.0000
)Next maximum=    8.2283E-01  at reduced coord.    0.5000    0.7500    0.0000
)     Minimum=    1.2182E-07  at reduced coord.    0.0000    0.0000    0.5000
)Next minimum=    1.3768E-07  at reduced coord.    0.9000    0.1000    0.5000
   Integrated=    2.6000E+01

== END DATASET(S) ==============================================================

 -outvars: echo values of variables after computation  --------

 These variables are accessible in NetCDF format (mos2o_OUT.nc)

            acell      5.9526373186E+00  5.9526373186E+00  3.7794522658E+01 Bohr
              amu      9.59400000E+01  3.20660000E+01
      chksymbreak           0
             ecut      1.20000000E+01 Hartree
           enunit1          0
           enunit2          1
           etotal1    -9.1852535751E+01
            fcart1    -2.6875204325E-07  1.6429477868E-06 -7.3268886865E-05
                      -6.5770170021E-07 -2.8166101117E-06  6.7808099205E-02
                       9.2645374346E-07  1.1736623250E-06 -6.7734830318E-02
-          fftalg         512
           getden1          0
           getden2         -1
             iscf1          7
             iscf2         -2
           istwfk1       4    0    0    5    0    0    0    0    0    0
                         0    0    0    0    0    0    8    0    0    9
           istwfk2       2    0    0    0    0    0    0    0    0    0
                         0    0    0    0    0    0    0    0    0    0
                         2
              ixc          11
           jdtset        1    2
              kpt1     0.00000000E+00  0.00000000E+00  5.00000000E-01
                       1.66666667E-01  0.00000000E+00  5.00000000E-01
                       3.33333333E-01  0.00000000E+00  5.00000000E-01
                       5.00000000E-01  0.00000000E+00  5.00000000E-01
                       0.00000000E+00  1.66666667E-01  5.00000000E-01
                       1.66666667E-01  1.66666667E-01  5.00000000E-01
                       3.33333333E-01  1.66666667E-01  5.00000000E-01
                       5.00000000E-01  1.66666667E-01  5.00000000E-01
                      -3.33333333E-01  1.66666667E-01  5.00000000E-01
                      -1.66666667E-01  1.66666667E-01  5.00000000E-01
                       0.00000000E+00  3.33333333E-01  5.00000000E-01
                       1.66666667E-01  3.33333333E-01  5.00000000E-01
                       3.33333333E-01  3.33333333E-01  5.00000000E-01
                       5.00000000E-01  3.33333333E-01  5.00000000E-01
                      -3.33333333E-01  3.33333333E-01  5.00000000E-01
                      -1.66666667E-01  3.33333333E-01  5.00000000E-01
                       0.00000000E+00  5.00000000E-01  5.00000000E-01
                       1.66666667E-01  5.00000000E-01  5.00000000E-01
                       3.33333333E-01  5.00000000E-01  5.00000000E-01
                       5.00000000E-01  5.00000000E-01  5.00000000E-01
              kpt2     0.00000000E+00  0.00000000E+00  0.00000000E+00
                       3.33333333E-02  3.33333333E-02  0.00000000E+00
                       6.66666667E-02  6.66666667E-02  0.00000000E+00
                       1.00000000E-01  1.00000000E-01  0.00000000E+00
                       1.33333333E-01  1.33333333E-01  0.00000000E+00
                       1.66666667E-01  1.66666667E-01  0.00000000E+00
                       2.00000000E-01  2.00000000E-01  0.00000000E+00
                       2.33333333E-01  2.33333333E-01  0.00000000E+00
                       2.66666667E-01  2.66666667E-01  0.00000000E+00
                       3.00000000E-01  3.00000000E-01  0.00000000E+00
                       3.33333333E-01  3.33333333E-01  0.00000000E+00
                       3.00000000E-01  3.00000000E-01  0.00000000E+00
                       2.66666667E-01  2.66666667E-01  0.00000000E+00
                       2.33333333E-01  2.33333333E-01  0.00000000E+00
                       2.00000000E-01  2.00000000E-01  0.00000000E+00
                       1.66666667E-01  1.66666667E-01  0.00000000E+00
                       1.33333333E-01  1.33333333E-01  0.00000000E+00
                       1.00000000E-01  1.00000000E-01  0.00000000E+00
                       6.66666667E-02  6.66666667E-02  0.00000000E+00
                       3.33333333E-02  3.33333333E-02  0.00000000E+00
                       0.00000000E+00  0.00000000E+00  0.00000000E+00
           kptopt1          1
           kptopt2         -2
         kptrlatt        6    0    0      0    6    0      0    0    1
          kptrlen1     3.57158239E+01
          kptrlen2     3.00000000E+01
P           mkmem1         20
P           mkmem2         21
            natom           3
            nband1         14
            nband2          4
           nbdbuf1          0
           nbdbuf2          2
           ndtset           2
           ndivsm1          0
           ndivsm2         10
            ngfft          20      20     120
             nkpt1         20
             nkpt2         21
            nstep          10
             nsym           1
           ntypat           2
              occ      2.000000  2.000000  2.000000  2.000000  2.000000  2.000000
                       2.000000  2.000000  2.000000  2.000000  2.000000  2.000000
                       2.000000  0.000000
            rprim      5.0000000000E-01 -8.6602540378E-01  0.0000000000E+00
                       5.0000000000E-01  8.6602540378E-01  0.0000000000E+00
                       0.0000000000E+00  0.0000000000E+00  1.0000000000E+00
           shiftk1     0.00000000E+00  0.00000000E+00  5.00000000E-01
           shiftk2     5.00000000E-01  5.00000000E-01  5.00000000E-01
          spgroup           1
           strten1     7.9250146425E-04  7.9239841874E-04  1.1123813054E-03
                       2.4829772281E-08 -3.7324020753E-08  3.6894322083E-08
           toldfe1     1.00000000E-06 Hartree
           toldfe2     0.00000000E+00 Hartree
           tolwfr1     0.00000000E+00
           tolwfr2     1.00000000E-12
            typat      1  2  2
              wtk1       0.02778    0.05556    0.05556    0.02778    0.05556    0.05556
                         0.05556    0.05556    0.05556    0.05556    0.05556    0.05556
                         0.05556    0.05556    0.05556    0.05556    0.02778    0.05556
                         0.05556    0.02778
              wtk2       1.00000    1.00000    1.00000    1.00000    1.00000    1.00000
                         1.00000    1.00000    1.00000    1.00000    1.00000    1.00000
                         1.00000    1.00000    1.00000    1.00000    1.00000    1.00000
                         1.00000    1.00000    1.00000
           xangst      1.5750000000E+00  9.0932667397E-01  0.0000000000E+00
                       1.5750000000E+00 -9.0932667397E-01 -1.8388847000E+00
                       1.5750000000E+00 -9.0932667397E-01  1.8388847000E+00
            xcart      2.9763186593E+00  1.7183783791E+00  0.0000000000E+00
                       2.9763186593E+00 -1.7183783791E+00 -3.4749884730E+00
                       2.9763186593E+00 -1.7183783791E+00  3.4749884730E+00
             xred      3.3333333333E-01  6.6666666667E-01  0.0000000000E+00
                       6.6666666667E-01  3.3333333333E-01 -9.1944235000E-02
                       6.6666666667E-01  3.3333333333E-01  9.1944235000E-02
            znucl       42.00000   16.00000

 Calculation completed.
.Delivered   4 WARNINGs and  10 COMMENTs to log file.

--- !FinalSummary
program: abinit
version: 9.10.3
start_datetime: Wed May 07 05:52:02 2025
end_datetime: Wed May 07 05:52:35 2025
overall_cpu_time:          20.9
overall_wall_time:          33.4
exit_requested_by_user: no
timelimit: 0
pseudos:
    Mo  : 228091cb5782e08cb8d68936b3c7e57b
    S   : ee4b2e2802f5df21cf2ecc26b1029f69
usepaw: 0
mpi_procs: 1
omp_threads: 1
num_warnings: 4
num_comments: 10
...