.Version 9.10.3 of ABINIT

 ABINIT is a project of the Universite Catholique de Louvain,
 Corning Inc. and other collaborators, see ~abinit/doc/developers/contributors.txt .
 acknowledgments of the ABINIT effort.

.Starting date : Wed  7 May 2025.
- ( at 06h45 )

 === Build Information ===
  Version       : 9.10.3
  Build target  : x86_64_linux_intel2021.6
  Build date    : 20240126

 === Optimizations ===
  Debug level        : basic
  Optimization level : standard
  Architecture       : intel_xeon

 === Multicore ===
  Parallel build : /shared/ucl/apps/intel/2020/impi/2019.6.166/intel64
  Parallel I/O   :
  openMP support :
  GPU support    :

 === Connectors / Fallbacks ===
  LINALG flavor  : mkl
  FFT flavor     : dfti
  HDF5           : yes
  NetCDF         : yes
  NetCDF Fortran : yes
  Wannier90      : no

 === Experimental features ===
  Exports             :
  GW double-precision :

 Default optimizations:
   -O3

 Optimizations for 43_ptgroups:
   -O0

 CPP options activated during the build:

                  CC_INTEL                   CXX_GNU                  FC_INTEL

                 HAVE_DFTI HAVE_FC_ALLOCATABLE_DT...             HAVE_FC_ASYNC

  HAVE_FC_COMMAND_ARGUMENT      HAVE_FC_COMMAND_LINE        HAVE_FC_CONTIGUOUS

           HAVE_FC_CPUTIME              HAVE_FC_EXIT             HAVE_FC_FLUSH

             HAVE_FC_GAMMA   HAVE_FC_IEEE_ARITHMETIC   HAVE_FC_IEEE_EXCEPTIONS

             HAVE_FC_IOMSG     HAVE_FC_ISO_C_BINDING  HAVE_FC_ISO_FORTRAN_2008

        HAVE_FC_LONG_LINES        HAVE_FC_MOVE_ALLOC  HAVE_FC_ON_THE_FLY_SHAPE

           HAVE_FC_PRIVATE         HAVE_FC_PROTECTED           HAVE_FC_SHIFTLR

         HAVE_FC_STREAM_IO                 HAVE_HDF5             HAVE_HDF5_MPI

         HAVE_LINALG_AXPBY        HAVE_LINALG_GEMM3M         HAVE_LINALG_GEMMT

  HAVE_LINALG_MKL_IMATCOPY   HAVE_LINALG_MKL_OMATADD  HAVE_LINALG_MKL_OMATCOPY

                 HAVE_MPI2       HAVE_MPI_IALLGATHER       HAVE_MPI_IALLREDUCE

        HAVE_MPI_IALLTOALL       HAVE_MPI_IALLTOALLV           HAVE_MPI_IBCAST

         HAVE_MPI_IGATHERV        HAVE_MPI_INTEGER16               HAVE_MPI_IO

 HAVE_MPI_TYPE_CREATE_S...               HAVE_NETCDF       HAVE_NETCDF_FORTRAN

   HAVE_NETCDF_FORTRAN_MPI           HAVE_NETCDF_MPI             HAVE_OS_LINUX

         HAVE_TIMER_ABINIT

- input  file    -> mos2_ecut.abi
- output file    -> mos2_ecut.abo
- root for input  files -> mos2_ecuti
- root for output files -> mos2_ecuto

-instrng: 42 lines of input have been read from file mos2_ecut.abi

 For atom type 1, psp file is ./persudo/Mo.psp8
 For atom type 2, psp file is ./persudo/S.psp8
  read the values zionpsp= 14.0 , pspcod=   8 , lmax=   2
  read the values zionpsp=  6.0 , pspcod=   8 , lmax=   2

 inpspheads: deduce mpsang = 3, n1xccc = 2501.

 invars1m : enter jdtset= 1

 symlatt: the Bravais lattice is hP (primitive hexagonal)
  xred   is defined in input file
 ingeo: takes atomic coordinates from input array xred

 symlatt: the Bravais lattice is hP (primitive hexagonal)

[...]

--- !COMMENT
src_file: m_symfind.F90
src_line: 995
message: |
    The Bravais lattice determined only from the primitive
    vectors, bravais(1)=  6, is more symmetric
    than the real one, iholohedry=  1, obtained by taking into
    account the atomic positions. Start deforming the primitive vector set.
...

 symlatt: the Bravais lattice is oC (one-face-centered orthorhombic)

--- !COMMENT
src_file: m_symfind.F90
src_line: 1004
message: |
    The Bravais lattice determined from modified primitive
    vectors, bravais(1)=  3, has a lower symmetry than before,
    but is still more symmetric than the real one, iholohedry=  1
    obtained by taking into account the atomic positions.
...

 symlatt: the Bravais lattice is aP (primitive triclinic)
 symspgr: spgroup=   1  P1   (=C1^1)

[...]

 symlatt: the Bravais lattice is aP (primitive triclinic)
 symspgr: spgroup=   1  P1   (=C1^1)

 invars1m : enter jdtset= 4

 symlatt: the Bravais lattice is hP (primitive hexagonal)
  xred   is defined in input file
 ingeo: takes atomic coordinates from input array xred

[...]

 symlatt: the Bravais lattice is hP (primitive hexagonal)

--- !COMMENT
src_file: m_symfind.F90
src_line: 995
message: |
    The Bravais lattice determined only from the primitive
    vectors, bravais(1)=  6, is more symmetric
    than the real one, iholohedry=  1, obtained by taking into
    account the atomic positions. Start deforming the primitive vector set.
...

 symlatt: the Bravais lattice is oC (one-face-centered orthorhombic)

--- !COMMENT
src_file: m_symfind.F90
src_line: 1004
message: |
    The Bravais lattice determined from modified primitive
    vectors, bravais(1)=  3, has a lower symmetry than before,
    but is still more symmetric than the real one, iholohedry=  1
    obtained by taking into account the atomic positions.
...

 symlatt: the Bravais lattice is aP (primitive triclinic)
 symspgr: spgroup=   1  P1   (=C1^1)
 invars2: take the default value of fband=  1.25000000E-01
 invars2: take the default value of fband=  1.25000000E-01
 invars2: take the default value of fband=  1.25000000E-01
 invars2: take the default value of fband=  1.25000000E-01
 LMac pawujat is:            0
 LMac pawujat is:            0
 LMac pawujat is:            0
 LMac pawujat is:            0
 For input ecut=  5.000000E+00 best grid ngfft=      12      12      80
       max ecut=  5.013643E+00

 ==== FFT mesh ====
  FFT mesh divisions ........................    12   12   80
  Augmented FFT divisions ...................    13   13   80
  FFT algorithm .............................   512
  FFT cache size ............................    16
 getmpw: optimal value of mpw= 628
 For input ecut=  5.000000E+00 best grid ngfft=      12      12      80
       max ecut=  5.013643E+00

[...]

 ==== FFT mesh ====
  FFT mesh divisions ........................    12   12   80
  Augmented FFT divisions ...................    13   13   80
  FFT algorithm .............................   512
  FFT cache size ............................    16
 getmpw: optimal value of mpw= 628
 For input ecut=  5.000000E+00 best grid ngfft=      12      12      80
       max ecut=  5.013643E+00

 ==== FFT mesh ====
  FFT mesh divisions ........................    12   12   80
  Augmented FFT divisions ...................    13   13   80
  FFT algorithm .............................   512
  FFT cache size ............................    16
 getmpw: optimal value of mpw= 628

 DATASET    1 : space group P1 (#  1); Bravais aP (primitive triclinic)

 getdim_nloc: deduce lmnmax  =  18, lnmax  =   6,
                      lmnmaxso=  18, lnmaxso=   6.
     intxc =       0    ionmov =       2      iscf =       7    lmnmax =       6
     lnmax =       6     mgfft =      80  mpssoang =       3    mqgrid =    3805
     natom =       3  nloc_mem =       1    nspden =       1   nspinor =       1
    nsppol =       1      nsym =       1    n1xccc =    2501    ntypat =       2
    occopt =       1   xclevel =       2
-    mband =          14        mffmem =           1         mkmem =           5
       mpw =         628          nfft =       11520          nkpt =           5
  Rough estimation (10% accuracy) of disk space for files :

 The job will continue.

[...]

 The job will continue.

 DATASET    4 : space group P1 (#  1); Bravais aP (primitive triclinic)

 getdim_nloc: deduce lmnmax  =  18, lnmax  =   6,
                      lmnmaxso=  18, lnmaxso=   6.
     intxc =       0    ionmov =       2      iscf =       7    lmnmax =       6
     lnmax =       6     mgfft =      80  mpssoang =       3    mqgrid =    3805
     natom =       3  nloc_mem =       1    nspden =       1   nspinor =       1
    nsppol =       1      nsym =       1    n1xccc =    2501    ntypat =       2
    occopt =       1   xclevel =       2
-    mband =          14        mffmem =           1         mkmem =           5
       mpw =         628          nfft =       11520          nkpt =           5
  Rough estimation (10% accuracy) of disk space for files :

 The job will continue.
------------- Echo of variables that govern the present computation ------------
-
- outvars: echo of selected default values
-   iomode0 =  0 , fftalg0 =512 , wfoptalg0 =  0
-
- outvars: echo of global parameters not present in the input file
-  max_nthreads =    0
-
 -outvars: echo values of preprocessed input variables --------

 These variables are accessible in NetCDF format (mos2_ecuto_OUT.nc)

            acell      5.9526373186E+00  5.9526373186E+00  3.7794522658E+01 Bohr
              amu      9.59400000E+01  3.20660000E+01
      chksymbreak           0
             ecut      5.00000000E+00 Hartree
-          fftalg         512
           ionmov           2
           istwfk        0    0    0    0    9
              ixc          11
           jdtset        1    2    3    4
              kpt      1.66666667E-01  1.66666667E-01  5.00000000E-01
                       5.00000000E-01  1.66666667E-01  5.00000000E-01
                      -1.66666667E-01  1.66666667E-01  5.00000000E-01
                       1.66666667E-01  5.00000000E-01  5.00000000E-01
                       5.00000000E-01  5.00000000E-01  5.00000000E-01
         kptrlatt        3    0    0      0    3    0      0    0    1
          kptrlen      1.78579120E+01
P           mkmem           5
            natom           3
            nband          14
           ndtset           4
            ngfft          12      12      80
             nkpt           5
            nstep          10
             nsym           1
            ntime          10
           ntypat           2
              occ      2.000000  2.000000  2.000000  2.000000  2.000000  2.000000
                       2.000000  2.000000  2.000000  2.000000  2.000000  2.000000
                       2.000000  0.000000
        optforces           1
            rprim      5.0000000000E-01 -8.6602540378E-01  0.0000000000E+00
                       5.0000000000E-01  8.6602540378E-01  0.0000000000E+00
                       0.0000000000E+00  0.0000000000E+00  1.0000000000E+00
           shiftk      5.00000000E-01  5.00000000E-01  5.00000000E-01
          spgroup           1
           toldff      5.00000000E-05
           tolmxf      5.00000000E-04
            typat      1  2  2
              wtk        0.22222    0.22222    0.22222    0.22222    0.11111
           xangst      1.5750000000E+00  9.0932667397E-01  0.0000000000E+00
                       1.5750000000E+00 -9.0932667397E-01 -1.8388847000E+00
                       1.5750000000E+00 -9.0932667397E-01  1.8388847000E+00
            xcart      2.9763186593E+00  1.7183783791E+00  0.0000000000E+00
                       2.9763186593E+00 -1.7183783791E+00 -3.4749884730E+00
                       2.9763186593E+00 -1.7183783791E+00  3.4749884730E+00
             xred      3.3333333333E-01  6.6666666667E-01  0.0000000000E+00
                       6.6666666667E-01  3.3333333333E-01 -9.1944235000E-02
                       6.6666666667E-01  3.3333333333E-01  9.1944235000E-02
            znucl       42.00000   16.00000

[...]
 wfconv:    14 bands initialized randomly with npw=   622, for ikpt=     1
 wfconv:    14 bands initialized randomly with npw=   628, for ikpt=     2
 wfconv:    14 bands initialized randomly with npw=   594, for ikpt=     3
 wfconv:    14 bands initialized randomly with npw=   628, for ikpt=     4
 wfconv:    14 bands initialized randomly with npw=   312, for ikpt=     5
_setup2: Arith. and geom. avg. npw (full set) are     618.667     618.519
 initro: for itypat=  1, take pseudo charge density from pp file
 initro: for itypat=  2, take pseudo charge density from pp file

=== [ionmov= 2] Broyden-Fletcher-Goldfard-Shanno method (forces)

[...]

--- !WARNING
src_file: m_drivexc.F90
src_line: 783
message: |
    Density went too small (lower than xc_denpos) at 3352 points
    and was set to xc_denpos =   1.00E-14. Lowest was  -0.25E-02.
    This might be due to (1) too low boxcut or (2) too low ecut for
     pseudopotential core charge, or (3) too low ecut for estimated initial density.
     Possible workarounds : increase ecut, or define the input variable densty,
     with a value larger than the guess for the decay length, or initialize your,
     density with a preliminary LDA or GGA-PBE if you are using a more exotic xc functional.
...

[...]

 fftdatar_write: About to write data to: mos2_ecuto_DS4_TIM1_DEN with iomode: IO_MODE_FORTRAN
 Integrated electronic density in atomic spheres:
 Atom  Sphere_radius  Integrated_density
    1        2.00000          9.70170227
    2        2.00000          3.79658888
    3        2.00000          3.79564071
 Write iteration in HIST netCDF file (also create it)

[...]

 Cartesian coordinates (xcart) [bohr]
  2.97631865929489E+00  1.71837837912920E+00  0.00000000000000E+00
  2.97631865929489E+00 -1.71837837912920E+00 -3.47498847295358E+00
  2.97631865929489E+00 -1.71837837912920E+00  3.47498847295358E+00
 Reduced coordinates (xred)
  3.33333333333333E-01  6.66666666666667E-01  0.00000000000000E+00
  6.66666666666667E-01  3.33333333333333E-01 -9.19442350000000E-02
  6.66666666666667E-01  3.33333333333333E-01  9.19442350000000E-02
 Cartesian forces (fcart) [Ha/bohr]; max,rms= 7.92182E-02 3.74552E-02 (free atoms)
 -1.88329870386645E-06  8.71852891120293E-03  2.47153027600033E-04
 -1.27438917715596E-06 -4.35340445386229E-03  7.89710500316607E-02
  3.15768788102241E-06 -4.36512445734064E-03 -7.92182030592607E-02
 Gradient of E wrt nuclear positions in reduced coordinates (gred)
  4.49508000335453E-02 -4.49395894393986E-02 -9.34103070155179E-03
 -2.24385952790780E-02  2.24461812556524E-02 -2.98467313972497E+00
 -2.25122047544673E-02  2.24934081837462E-02  2.99401417042653E+00
 Total energy (etotal) [Ha]= -8.88614947942946E+01
 fconv : at Broyd/MD step   1, gradients have not converged yet.
  max grad (force/stress) = 7.9218E-02 > tolmxf= 5.0000E-04 ha/bohr (free atoms)

Inverse hessian has been initialized.
 EXIT:           1           1
 {mover_itime: 1 , wall_time: '  5.20 [s] '} <<< TIME

[...]

--- !ScfConvergenceWarning
message: |
    nstep 10 was not enough SCF cycles to converge.
...

 scprqt:  WARNING -
  nstep=   10 was not enough SCF cycles to converge;
  maximum force difference=  2.732E-04 exceeds toldff=  5.000E-05

[...]

 Pulay update with  7 previous iterations:
 mixing of old trial potential: alpha(m:m-4)=   2.17     -0.742     -0.826      0.562     -0.490E-01

[...]

 Difference of energy with previous step (new-old):
           Absolute (Ha)=-7.95815E-06
           Relative     =-8.95247E-08
 fconv : at Broyd/MD step   6, gradients have not converged yet.
  max grad (force/stress) = 1.2027E-03 > tolmxf= 5.0000E-04 ha/bohr (free atoms)

 EXIT:           1           1
 {mover_itime: 6 , wall_time: '  4.95 [s] '} <<< TIME

--- Iteration: ( 7/10) Internal Cycle: (1/1)

 Cartesian coordinates (xcart) [bohr]
  2.97631911895524E+00  1.74016424670872E+00  4.90419221950184E-06
  2.97631830236360E+00 -1.72926543356885E+00 -3.10566465805474E+00
  2.97631855656582E+00 -1.72927719226907E+00  3.10565975386252E+00
 Reduced coordinates (xred)
  3.31220384706009E-01  6.68779769733219E-01  1.29759337455239E-07
  6.67722549386168E-01  3.32277330690085E-01 -8.21723477283011E-02
  6.67723732574489E-01  3.32276232910030E-01  8.21722179689637E-02

---SELF-CONSISTENT-FIELD CONVERGENCE--------------------------------------------

 getcut: wavevector=  0.0000  0.0000  0.0000  ngfft=  12  12  80
         ecut(hartree)=      5.000   => boxcut(ratio)=   2.00273

[...]

 Simple mixing update:
  residual square of the potential:   5.553970969808514E-002
{SCF_istep: 1 , Vnl|psi>: 1202 , wall_time: '  2.46 [s] '} <<< TIME

 ITER STEP NUMBER     2
 Max number of non-self-consistent loops: 2
 Total charge density [el/Bohr^3]
)     Maximum=    5.7796E-01  at reduced coord.    0.2500    0.7500    0.0000
)     Minimum=    5.5977E-06  at reduced coord.    0.8333    0.3333    0.5000
   Integrated=    2.6000E+01
 ETOT  2  -88.893440116799    -2.007E-06 1.295E-08 1.182E-03 1.349E-03 4.747E-04
 scprqt: <Vxc>= -1.6493748E-01 hartree

[...]

 Pulay update with  4 previous iterations:
 mixing of old trial potential: alpha(m:m-4)=   1.07     -0.697E-01  0.592E-02 -0.107E-01  0.207E-03
{SCF_istep: 5 , Vnl|psi>: 402 , wall_time: '  0.07 [s] '} <<< TIME

 ITER STEP NUMBER     6
 Total charge density [el/Bohr^3]
)     Maximum=    5.7798E-01  at reduced coord.    0.2500    0.7500    0.0000
)     Minimum=    5.5996E-06  at reduced coord.    0.8333    0.3333    0.5000
   Integrated=    2.6000E+01
 ETOT  6  -88.893440978630    -1.685E-09 9.062E-11 2.558E-05 4.770E-06 2.788E-04
 scprqt: <Vxc>= -1.6493704E-01 hartree

 At SCF step    6, forces are converged :
  for the second time, max diff in force=  4.770E-06 < toldff=  5.000E-05

 Ekinetic   = :     2.534171E+01 Ha ,    6.895831E+02 eV
 Evext_l    = :    -5.874270E+02 Ha ,   -1.598470E+04 eV
 Evext_nl   = :     1.164233E+01 Ha ,    3.168039E+02 eV
 Epsp_core  = :     7.631172E-01 Ha ,    2.076547E+01 eV
 Ehartree   = :     2.735936E+02 Ha ,    7.444862E+03 eV
 Exc_ks     = :    -1.579720E+01 Ha ,   -4.298638E+02 eV
 Enn        = :     2.029900E+02 Ha ,    5.523638E+03 eV
 Etot       = :    -8.889344E+01 Ha ,   -2.418914E+03 eV

[...]

 fftdatar_write: About to write data to: mos2_ecuto_DS4_TIM7_DEN with iomode: IO_MODE_FORTRAN
 Integrated electronic density in atomic spheres:
 Atom  Sphere_radius  Integrated_density
    1        2.00000          9.77400004
    2        2.00000          3.92893903
    3        2.00000          3.92894340
 Write iteration in HIST netCDF file

---OUTPUT-----------------------------------------------------------------------

 Cartesian coordinates (xcart) [bohr]
  2.97631911895524E+00  1.74016424670872E+00  4.90419221950184E-06
  2.97631830236360E+00 -1.72926543356885E+00 -3.10566465805474E+00
  2.97631855656582E+00 -1.72927719226907E+00  3.10565975386252E+00
 Reduced coordinates (xred)
  3.31220384706009E-01  6.68779769733219E-01  1.29759337455239E-07
  6.67722549386168E-01  3.32277330690085E-01 -8.21723477283011E-02
  6.67723732574489E-01  3.32276232910030E-01  8.21722179689637E-02
 Cartesian forces (fcart) [Ha/bohr]; max,rms= 2.78841E-04 1.62780E-04 (free atoms)
 -1.94985340674306E-07 -2.78840801654226E-04 -4.56849918781733E-06
  1.16116958886298E-07  1.38603186728153E-04 -2.44511383769299E-04
  7.88683817880081E-08  1.40237614926073E-04  2.49079882957116E-04
 Gradient of E wrt nuclear positions in reduced coordinates (gred)
 -1.43688167583729E-03  1.43804235285277E-03  1.72664246065705E-04
  7.14172556984804E-04 -7.14863759127592E-04  9.24119103393748E-03
  7.22709118852488E-04 -7.23178593725176E-04 -9.41385528000318E-03
 Total energy (etotal) [Ha]= -8.88934409786304E+01

 Difference of energy with previous step (new-old):
           Absolute (Ha)=-2.76452E-06
           Relative     =-3.10992E-08

 At Broyd/MD step   7, gradients are converged :
  max grad (force/stress) = 2.7884E-04 < tolmxf= 5.0000E-04 ha/bohr (free atoms)

 ----iterations are completed or convergence reached----

 === Gap info ===
  >>>> For spin  1
   Minimum direct gap =   2.9337 [eV], located at k-point      :  -0.1667  0.1667  0.5000
   Fundamental gap    =   2.4155 [eV], Top of valence bands at :  -0.1667  0.1667  0.5000
                                       Bottom of conduction at :   0.1667  0.1667  0.5000
 Mean square residual over all n,k,spin=   44.683E-13; max=  90.623E-12
   0.1667  0.1667  0.5000    1  4.23689E-11 kpt; spin; max resid(k); each band:
  2.87E-13 1.48E-13 1.21E-13 2.53E-13 1.04E-12 6.75E-13 2.65E-12 6.98E-13
  2.75E-12 6.77E-13 1.24E-12 7.73E-13 2.02E-12 4.24E-11
   0.5000  0.1667  0.5000    1  9.06234E-11 kpt; spin; max resid(k); each band:
  3.01E-13 2.96E-13 1.16E-13 2.89E-13 7.98E-13 9.13E-13 1.91E-12 3.66E-13
  1.87E-12 8.33E-13 1.38E-12 5.70E-13 2.21E-12 9.06E-11
  -0.1667  0.1667  0.5000    1  3.45774E-12 kpt; spin; max resid(k); each band:
  3.20E-13 1.61E-13 2.69E-13 9.14E-14 1.04E-12 8.72E-13 3.46E-12 2.01E-12
  1.64E-12 1.37E-13 3.20E-13 9.64E-13 2.64E-12 2.84E-12
   0.1667  0.5000  0.5000    1  9.05723E-11 kpt; spin; max resid(k); each band:
  3.01E-13 2.96E-13 1.16E-13 2.89E-13 7.98E-13 9.13E-13 1.91E-12 3.66E-13
  1.87E-12 8.33E-13 1.38E-12 5.70E-13 2.21E-12 9.06E-11
   0.5000  0.5000  0.5000    1  2.63081E-11 kpt; spin; max resid(k); each band:
  2.94E-13 3.12E-13 1.35E-13 1.57E-13 1.04E-12 6.94E-13 1.16E-12 8.24E-13
  1.58E-12 7.46E-14 7.11E-13 3.84E-13 1.71E-12 2.63E-11

   outwf: writing wavefunctions to: mos2_ecuto_DS4_WFK with iomode: IO_MODE_FORTRAN_MASTER
 prteigrs : about to open file mos2_ecuto_DS4_EIG
 Fermi (or HOMO) energy (hartree) =  -0.07960   Average Vxc (hartree)=  -0.16494
 Eigenvalues (hartree) for nkpt=   5  k points:
 kpt#   1, nband= 14, wtk=  0.22222, kpt=  0.1667  0.1667  0.5000 (reduced coord)
  -2.42609   -1.62247   -1.60328   -1.59687   -0.51163   -0.48498   -0.26454   -0.22029
  -0.21021   -0.19798   -0.15147   -0.12032   -0.10240    0.00917
 kpt#   2, nband= 14, wtk=  0.22222, kpt=  0.5000  0.1667  0.5000 (reduced coord)
  -2.42618   -1.62983   -1.60672   -1.59996   -0.47545   -0.47458   -0.27917   -0.26444
  -0.21429   -0.20071   -0.16718   -0.14529   -0.09239    0.02665
 kpt#   3, nband= 14, wtk=  0.22222, kpt= -0.1667  0.1667  0.5000 (reduced coord)
  -2.42476   -1.60206   -1.59470   -1.55891   -0.53638   -0.49253   -0.26728   -0.19381
  -0.18968   -0.14980   -0.14979   -0.12173   -0.07960    0.02822
 kpt#   4, nband= 14, wtk=  0.22222, kpt=  0.1667  0.5000  0.5000 (reduced coord)
  -2.42618   -1.62983   -1.60672   -1.59996   -0.47545   -0.47458   -0.27917   -0.26444
  -0.21429   -0.20071   -0.16718   -0.14529   -0.09239    0.02665
 kpt#   5, nband= 14, wtk=  0.11111, kpt=  0.5000  0.5000  0.5000 (reduced coord)
  -2.42592   -1.64298   -1.60644   -1.58120   -0.47578   -0.47250   -0.29218   -0.25809
  -0.22191   -0.19752   -0.15213   -0.11362   -0.09902    0.03097
 Total charge density [el/Bohr^3]
)     Maximum=    5.7798E-01  at reduced coord.    0.2500    0.7500    0.0000
)Next maximum=    5.7343E-01  at reduced coord.    0.5000    0.7500    0.0000
)     Minimum=    5.5996E-06  at reduced coord.    0.8333    0.3333    0.5000
)Next minimum=    5.5996E-06  at reduced coord.    0.6667    0.1667    0.5000
   Integrated=    2.6000E+01

 Cartesian components of stress tensor (hartree/bohr^3)
  sigma(1 1)=  3.84796534E-03  sigma(3 2)= -2.88014846E-09
  sigma(2 2)=  3.78963279E-03  sigma(3 1)=  7.30493604E-11
  sigma(3 3)=  3.87397035E-03  sigma(2 1)= -1.09205187E-10

-Cartesian components of stress tensor (GPa)         [Pressure= -1.1289E+02 GPa]
- sigma(1 1)=  1.13211030E+02  sigma(3 2)= -8.47368788E-05
- sigma(2 2)=  1.11494827E+02  sigma(3 1)=  2.14918602E-06
- sigma(3 3)=  1.13976123E+02  sigma(2 1)= -3.21292697E-06

== END DATASET(S) ==============================================================

 -outvars: echo values of variables after computation  --------

 These variables are accessible in NetCDF format (mos2_ecuto_OUT.nc)

            acell      5.9526373186E+00  5.9526373186E+00  3.7794522658E+01 Bohr
              amu      9.59400000E+01  3.20660000E+01
      chksymbreak           0
             ecut      5.00000000E+00 Hartree
           etotal1    -8.8893440979E+01
           etotal2    -8.8893440979E+01
           etotal3    -8.8893440979E+01
           etotal4    -8.8893440979E+01
            fcart1    -1.9498534067E-07 -2.7884080165E-04 -4.5684991878E-06
                       1.1611695889E-07  1.3860318673E-04 -2.4451138377E-04
                       7.8868381788E-08  1.4023761493E-04  2.4907988296E-04
            fcart2    -1.9498534067E-07 -2.7884080165E-04 -4.5684991878E-06
                       1.1611695889E-07  1.3860318673E-04 -2.4451138377E-04
                       7.8868381788E-08  1.4023761493E-04  2.4907988296E-04
            fcart3    -1.9498534067E-07 -2.7884080165E-04 -4.5684991878E-06
                       1.1611695889E-07  1.3860318673E-04 -2.4451138377E-04
                       7.8868381788E-08  1.4023761493E-04  2.4907988296E-04
            fcart4    -1.9498534067E-07 -2.7884080165E-04 -4.5684991878E-06
                       1.1611695889E-07  1.3860318673E-04 -2.4451138377E-04
                       7.8868381788E-08  1.4023761493E-04  2.4907988296E-04
-          fftalg         512
           ionmov           2
           istwfk        0    0    0    0    9
              ixc          11
           jdtset        1    2    3    4
              kpt      1.66666667E-01  1.66666667E-01  5.00000000E-01
                       5.00000000E-01  1.66666667E-01  5.00000000E-01
                      -1.66666667E-01  1.66666667E-01  5.00000000E-01
                       1.66666667E-01  5.00000000E-01  5.00000000E-01
                       5.00000000E-01  5.00000000E-01  5.00000000E-01
         kptrlatt        3    0    0      0    3    0      0    0    1
          kptrlen      1.78579120E+01
P           mkmem           5
            natom           3
            nband          14
           ndtset           4
            ngfft          12      12      80
             nkpt           5
            nstep          10
             nsym           1
            ntime          10
           ntypat           2
              occ      2.000000  2.000000  2.000000  2.000000  2.000000  2.000000
                       2.000000  2.000000  2.000000  2.000000  2.000000  2.000000
                       2.000000  0.000000
        optforces           1
            rprim      5.0000000000E-01 -8.6602540378E-01  0.0000000000E+00
                       5.0000000000E-01  8.6602540378E-01  0.0000000000E+00
                       0.0000000000E+00  0.0000000000E+00  1.0000000000E+00
           shiftk      5.00000000E-01  5.00000000E-01  5.00000000E-01
          spgroup           1
           strten1     3.8479653446E-03  3.7896327903E-03  3.8739703481E-03
                      -2.8801484551E-09  7.3049360431E-11 -1.0920518657E-10
           strten2     3.8479653446E-03  3.7896327903E-03  3.8739703481E-03
                      -2.8801484551E-09  7.3049360431E-11 -1.0920518657E-10
           strten3     3.8479653446E-03  3.7896327903E-03  3.8739703481E-03
                      -2.8801484551E-09  7.3049360431E-11 -1.0920518657E-10
           strten4     3.8479653446E-03  3.7896327903E-03  3.8739703481E-03
                      -2.8801484551E-09  7.3049360431E-11 -1.0920518657E-10
           toldff      5.00000000E-05
           tolmxf      5.00000000E-04
            typat      1  2  2
              wtk        0.22222    0.22222    0.22222    0.22222    0.11111
           xangst      1.5750002432E+00  9.2085525856E-01  2.5951867491E-06
                       1.5749998111E+00 -9.1508785505E-01 -1.6434469546E+00
                       1.5749999456E+00 -9.1509407748E-01  1.6434443594E+00
            xcart      2.9763191190E+00  1.7401642467E+00  4.9041922195E-06
                       2.9763183024E+00 -1.7292654336E+00 -3.1056646581E+00
                       2.9763185566E+00 -1.7292771923E+00  3.1056597539E+00
             xred      3.3122038471E-01  6.6877976973E-01  1.2975933746E-07
                       6.6772254939E-01  3.3227733069E-01 -8.2172347728E-02
                       6.6772373257E-01  3.3227623291E-01  8.2172217969E-02
            znucl       42.00000   16.00000

 Calculation completed.
.Delivered  16 WARNINGs and  14 COMMENTs to log file.

--- !FinalSummary
program: abinit
version: 9.10.3
start_datetime: Wed May 07 06:45:11 2025
end_datetime: Wed May 07 06:47:37 2025
overall_cpu_time:         133.7
overall_wall_time:         145.8
exit_requested_by_user: no
timelimit: 0
pseudos:
    Mo  : 228091cb5782e08cb8d68936b3c7e57b
    S   : ee4b2e2802f5df21cf2ecc26b1029f69
usepaw: 0
mpi_procs: 1
omp_threads: 1
num_warnings: 16
num_comments: 14
...