.Version 9.10.3 of ABINIT

 ABINIT is a project of the Universite Catholique de Louvain,
 Corning Inc. and other collaborators, see ~abinit/doc/developers/contributors.txt .
 acknowledgments of the ABINIT effort.

.Starting date : Mon  5 May 2025.
- ( at 15h46 )

 === Build Information ===
  Version       : 9.10.3
  Build target  : x86_64_linux_intel2021.6
  Build date    : 20240126

 === Optimizations ===
  Debug level        : basic
  Optimization level : standard
  Architecture       : intel_xeon

 === Multicore ===
  Parallel build : /shared/ucl/apps/intel/2020/impi/2019.6.166/intel64
  Parallel I/O   :
  openMP support :
  GPU support    :

 === Connectors / Fallbacks ===
  LINALG flavor  : mkl
  FFT flavor     : dfti
  HDF5           : yes
  NetCDF         : yes
  NetCDF Fortran : yes
  Wannier90      : no

 === Experimental features ===
  Exports             :
  GW double-precision :

 Default optimizations:
   -O3

 Optimizations for 43_ptgroups:
   -O0

 CPP options activated during the build:

                  CC_INTEL                   CXX_GNU                  FC_INTEL

                 HAVE_DFTI HAVE_FC_ALLOCATABLE_DT...             HAVE_FC_ASYNC

  HAVE_FC_COMMAND_ARGUMENT      HAVE_FC_COMMAND_LINE        HAVE_FC_CONTIGUOUS

           HAVE_FC_CPUTIME              HAVE_FC_EXIT             HAVE_FC_FLUSH

             HAVE_FC_GAMMA   HAVE_FC_IEEE_ARITHMETIC   HAVE_FC_IEEE_EXCEPTIONS

             HAVE_FC_IOMSG     HAVE_FC_ISO_C_BINDING  HAVE_FC_ISO_FORTRAN_2008

        HAVE_FC_LONG_LINES        HAVE_FC_MOVE_ALLOC  HAVE_FC_ON_THE_FLY_SHAPE

           HAVE_FC_PRIVATE         HAVE_FC_PROTECTED           HAVE_FC_SHIFTLR

         HAVE_FC_STREAM_IO                 HAVE_HDF5             HAVE_HDF5_MPI

         HAVE_LINALG_AXPBY        HAVE_LINALG_GEMM3M         HAVE_LINALG_GEMMT

  HAVE_LINALG_MKL_IMATCOPY   HAVE_LINALG_MKL_OMATADD  HAVE_LINALG_MKL_OMATCOPY

                 HAVE_MPI2       HAVE_MPI_IALLGATHER       HAVE_MPI_IALLREDUCE

        HAVE_MPI_IALLTOALL       HAVE_MPI_IALLTOALLV           HAVE_MPI_IBCAST

         HAVE_MPI_IGATHERV        HAVE_MPI_INTEGER16               HAVE_MPI_IO

 HAVE_MPI_TYPE_CREATE_S...               HAVE_NETCDF       HAVE_NETCDF_FORTRAN

   HAVE_NETCDF_FORTRAN_MPI           HAVE_NETCDF_MPI             HAVE_OS_LINUX

         HAVE_TIMER_ABINIT

- input  file    -> mos2.abi
- output file    -> mos2.abo
- root for input  files -> mos2i
- root for output files -> mos2o

-instrng: 41 lines of input have been read from file mos2.abi

 For atom type 1, psp file is ./persudo/Mo.psp8
 For atom type 2, psp file is ./persudo/S.psp8
  read the values zionpsp= 14.0 , pspcod=   8 , lmax=   2
  read the values zionpsp=  6.0 , pspcod=   8 , lmax=   2

 inpspheads: deduce mpsang = 3, n1xccc = 2501.

 invars1m : enter jdtset= 0

 symlatt: the Bravais lattice is hP (primitive hexagonal)
  xred   is defined in input file
 ingeo: takes atomic coordinates from input array xred

 symlatt: the Bravais lattice is hP (primitive hexagonal)

 symlatt: the Bravais lattice is hP (primitive hexagonal)

--- !COMMENT
src_file: m_symfind.F90
src_line: 995
message: |
    The Bravais lattice determined only from the primitive
    vectors, bravais(1)=  6, is more symmetric
    than the real one, iholohedry=  1, obtained by taking into
    account the atomic positions. Start deforming the primitive vector set.
...

 symlatt: the Bravais lattice is oC (one-face-centered orthorhombic)

--- !COMMENT
src_file: m_symfind.F90
src_line: 1004
message: |
    The Bravais lattice determined from modified primitive
    vectors, bravais(1)=  3, has a lower symmetry than before,
    but is still more symmetric than the real one, iholohedry=  1
    obtained by taking into account the atomic positions.
...

 symlatt: the Bravais lattice is aP (primitive triclinic)
 symspgr: spgroup=   1  P1   (=C1^1)
 invars2: take the default value of fband=  1.25000000E-01
 LMac pawujat is:            0
 For input ecut=  1.200000E+01 best grid ngfft=      20      20     120
       max ecut=  1.243697E+01

 ==== FFT mesh ====
  FFT mesh divisions ........................    20   20  120
  Augmented FFT divisions ...................    21   21  120
  FFT algorithm .............................   512
  FFT cache size ............................    16
 getmpw: optimal value of mpw= 2310

 Symmetries : space group P1 (#  1); Bravais aP (primitive triclinic)

 getdim_nloc: deduce lmnmax  =  18, lnmax  =   6,
                      lmnmaxso=  18, lnmaxso=   6.
     intxc =       0    ionmov =       0      iscf =       7    lmnmax =       6
     lnmax =       6     mgfft =     120  mpssoang =       3    mqgrid =    5894
     natom =       3  nloc_mem =       1    nspden =       1   nspinor =       1
    nsppol =       1      nsym =       1    n1xccc =    2501    ntypat =       2
    occopt =       1   xclevel =       2
-    mband =          14        mffmem =           1         mkmem =           2
       mpw =        2310          nfft =       48000          nkpt =           2
  Rough estimation (10% accuracy) of disk space for files :

 The job will continue.
------------- Echo of variables that govern the present computation ------------
-
- outvars: echo of selected default values
-   iomode0 =  0 , fftalg0 =512 , wfoptalg0 =  0
-
- outvars: echo of global parameters not present in the input file
-  max_nthreads =    0
-
 -outvars: echo values of preprocessed input variables --------

 These variables are accessible in NetCDF format (mos2o_OUT.nc)

            acell      5.9526373186E+00  5.9526373186E+00  3.7794522658E+01 Bohr
              amu      9.59400000E+01  3.20660000E+01
      chksymbreak           0
           diemac      1.20000000E+01
             ecut      1.20000000E+01 Hartree
-          fftalg         512
           istwfk        2    0
              ixc          11
              kpt      0.00000000E+00  0.00000000E+00  0.00000000E+00
                       3.33333333E-01  0.00000000E+00  0.00000000E+00
         kptrlatt        3    0    0      0    1    0      0    0    1
          kptrlen      5.95263732E+00
P           mkmem           2
            natom           3
            nband          14
            ngfft          20      20     120
             nkpt           2
            nstep          10
             nsym           1
           ntypat           2
              occ      2.000000  2.000000  2.000000  2.000000  2.000000  2.000000
                       2.000000  2.000000  2.000000  2.000000  2.000000  2.000000
                       2.000000  0.000000
            rprim      5.0000000000E-01 -8.6602540378E-01  0.0000000000E+00
                       5.0000000000E-01  8.6602540378E-01  0.0000000000E+00
                       0.0000000000E+00  0.0000000000E+00  1.0000000000E+00
          spgroup           1
           toldfe      1.00000000E-06 Hartree
            typat      1  2  2
              wtk        0.33333    0.66667
           xangst      1.5750000000E+00  9.0932667397E-01  0.0000000000E+00
                       1.5750000000E+00 -9.0932667397E-01 -1.8388847000E+00
                       1.5750000000E+00 -9.0932667397E-01  1.8388847000E+00
            xcart      2.9763186593E+00  1.7183783791E+00  0.0000000000E+00
                       2.9763186593E+00 -1.7183783791E+00 -3.4749884730E+00
                       2.9763186593E+00 -1.7183783791E+00  3.4749884730E+00
             xred      3.3333333333E-01  6.6666666667E-01  0.0000000000E+00
                       6.6666666667E-01  3.3333333333E-01 -9.1944235000E-02
                       6.6666666667E-01  3.3333333333E-01  9.1944235000E-02
            znucl       42.00000   16.00000

 chkinp: Checking input parameters for consistency.
 DATA TYPE INFORMATION:
 REAL:      Data type name: REAL(DP)
            Kind value:      8
            Precision:      15
            Smallest nonnegligible quantity relative to 1: 0.22204460E-015
            Smallest positive number:                      0.22250739E-307
            Largest representable number:                  0.17976931E+309
 INTEGER:   Data type name: INTEGER(default)
            Kind value: 4
            Bit size:   32
            Largest representable number: 2147483647
 LOGICAL:   Data type name: LOGICAL
            Kind value: 4
 CHARACTER: Data type name: CHARACTER             Kind value: 1

  ==== OpenMP parallelism is OFF ====

  xmpi_tag_ub ................   1073741823
  xmpi_bsize_ch ..............            1
  xmpi_bsize_int .............            4
  xmpi_bsize_sp ..............            4
  xmpi_bsize_dp ..............            8
  xmpi_bsize_spc .............            8
  xmpi_bsize_dpc .............           16
  xmpio_bsize_frm ............            4
  xmpi_address_kind ..........            8
  xmpi_offset_kind ...........            8
  MPI_WTICK ..................   4.009472495000623E-010

== DATASET  1 ==================================================================
-   mpi_nproc: 1, omp_nthreads: -1 (-1 if OMP is not activated)

 getdim_nloc: deduce lmnmax  =  18, lnmax  =   6,
                      lmnmaxso=  18, lnmaxso=   6.
 Exchange-correlation functional for the present dataset will be:
  GGA: Perdew-Burke-Ernzerhof functional - ixc=11
 Citation for XC functional:
  J.P.Perdew, K.Burke, M.Ernzerhof, PRL 77, 3865 (1996)

 Unit cell volume ucvol=  1.1597873E+03 bohr^3
 Angles (23,13,12)=  9.00000000E+01  9.00000000E+01  1.20000000E+02 degrees

 getcut: wavevector=  0.0000  0.0000  0.0000  ngfft=  20  20 120
         ecut(hartree)=     12.000   => boxcut(ratio)=   2.03609
- pspini: atom type   1  psp file is ./persudo/Mo.psp8
- pspatm: opening atomic psp file    ./persudo/Mo.psp8
- Mo    ONCVPSP-3.2.3.1  r_core=   1.45541   1.45541   1.35488
- 42.00000  14.00000    170510                znucl, zion, pspdat
    8   11    2    4       600   0.00000      pspcod,pspxc,lmax,lloc,mmax,r2well
    5.99000000000000    3.00000000000000    0.00000000000000   rchrg,fchrg,qchrg
     nproj     2     2     2
     extension_switch     1
  valence charge (before rescaling) integrates to:    13.9106199290666
  pspatm : epsatm=   15.95693586
         --- l  ekb(1:nproj) -->
             0   13.833287    1.350687
             1    8.015347    1.134034
             2    2.765699    0.969071
 pspatm: atomic psp has been read  and splines computed

- pspini: atom type   2  psp file is ./persudo/S.psp8
- pspatm: opening atomic psp file    ./persudo/S.psp8
- S     ONCVPSP-4.0.1  r_core=   1.45687   1.45687   1.45687
- 16.00000   6.00000    220131                znucl, zion, pspdat
    8   11    2    4       600   0.00000      pspcod,pspxc,lmax,lloc,mmax,r2well
    5.99000000000000    6.00000000000000    0.00000000000000   rchrg,fchrg,qchrg
     nproj     2     2     2
     extension_switch     1
  valence charge (before rescaling) integrates to:    5.98952054080779
  pspatm : epsatm=    9.04179351
         --- l  ekb(1:nproj) -->
             0    6.774234    0.542270
             1    3.022426    0.737017
             2   -5.033160   -1.531047
 pspatm: atomic psp has been read  and splines computed

   8.85053595E+02                                ecore*ucvol(ha*bohr**3)
 ==== Info on pseudopotentials ====
  Norm-conserving pseudopotentials
  Number of pseudopotentials ..    2
  Number of types of atoms   ..    2
  Scalar calculation (no spin-orbit term)
  Nonlocal part applied using Legendre polynomials
  Max number of non-local projectors over l and type   2
  Highest angular momentum +1 .......   3
  Max number of (l,n)   components ..   6
  Max number of (l,m,n) components ..   6

 Pseudo-Core Charge Info:
   Number of radial points for pseudo-core charge .. 2501
   XC core-correction treatment (optnlxccc) ........    1
   Radius for pseudo-core charge for each type .....

  - Atom type    1 has pseudo-core radius ..  5.9900
  - Atom type    2 has pseudo-core radius ..  5.9900

 Info on the Q-grid used for form factors in spline form:
   Number of q-points for radial functions ffspl ..   5894
   Number of q-points for vlspl ...................   5894
   vloc is computed in Reciprocal Space
   model core charge treated in real-space

  XC functional for type 1 is 11
  Pseudo valence available: yes
  XC functional for type 2 is 11
  Pseudo valence available: yes

 wfconv:    14 bands initialized randomly with npw=  1164, for ikpt=     1
 wfconv:    14 bands initialized randomly with npw=  2310, for ikpt=     2
_setup2: Arith. and geom. avg. npw (full set) are    2315.667    2315.653
 initro: for itypat=  1, take pseudo charge density from pp file
 initro: for itypat=  2, take pseudo charge density from pp file

 getcut: wavevector=  0.0000  0.0000  0.0000  ngfft=  20  20 120
         ecut(hartree)=     12.000   => boxcut(ratio)=   2.03609

 1/G**2 cut-off applied in the following step : cutoff-mode = CRYSTAL

[...]

 1/G**2 cut-off applied in the following step : cutoff-mode = CRYSTAL

--- !WARNING
src_file: m_drivexc.F90
src_line: 783
message: |
    Density went too small (lower than xc_denpos) at 12956 points
    and was set to xc_denpos =   1.00E-14. Lowest was  -0.55E-03.
    This might be due to (1) too low boxcut or (2) too low ecut for
     pseudopotential core charge, or (3) too low ecut for estimated initial density.
     Possible workarounds : increase ecut, or define the input variable densty,
     with a value larger than the guess for the decay length, or initialize your,
     density with a preliminary LDA or GGA-PBE if you are using a more exotic xc functional.
...

 ITER STEP NUMBER     1
 Max number of non-self-consistent loops: 2
 Total charge density [el/Bohr^3]
)     Maximum=    7.6739E-01  at reduced coord.    0.2500    0.6500    0.9833
)     Minimum=    1.7230E-04  at reduced coord.    0.3500    0.5000    0.7000
   Integrated=    2.6000E+01

 1/G**2 cut-off applied in the following step : cutoff-mode = CRYSTAL
 ETOT  1  -90.319512161780    -9.032E+01 5.713E-02 1.383E+04
 scprqt: <Vxc>= -2.0438195E-01 hartree

 Simple mixing update:
  residual square of the potential:    486.017463249907
{SCF_istep: 1 , Vnl|psi>: 280 , wall_time: '  3.81 [s] '} <<< TIME

 ITER STEP NUMBER     2
 Max number of non-self-consistent loops: 2
 Total charge density [el/Bohr^3]
)     Maximum=    1.1081E+00  at reduced coord.    0.2000    0.5000    0.0000
)     Minimum=    5.9339E-07  at reduced coord.    0.3500    0.6000    0.4333
   Integrated=    2.6000E+01
 ETOT  2  -84.206785358398     6.113E+00 1.164E-02 3.981E+04
 scprqt: <Vxc>= -1.4920211E-01 hartree

 Pulay update with  1 previous iterations:
 mixing of old trial potential: alpha(m:m-4)=  0.280      0.720
{SCF_istep: 2 , Vnl|psi>: 275 , wall_time: '  0.22 [s] '} <<< TIME

 ITER STEP NUMBER     3
 Total charge density [el/Bohr^3]
)     Maximum=    8.4735E-01  at reduced coord.    0.3000    0.5000    0.0000
)     Minimum=    2.2549E-07  at reduced coord.    0.0000    0.8000    0.3833
   Integrated=    2.6000E+01
 ETOT  3  -91.690586682742    -7.484E+00 5.598E-02 3.061E+02
 scprqt: <Vxc>= -1.5903825E-01 hartree

[...]

 Pulay update with  7 previous iterations:
 mixing of old trial potential: alpha(m:m-4)=   1.15      0.461     -0.437     -0.139      0.134E-01
{SCF_istep: 9 , Vnl|psi>: 140 , wall_time: '  0.09 [s] '} <<< TIME

 ITER STEP NUMBER    10
 Total charge density [el/Bohr^3]
)     Maximum=    8.5216E-01  at reduced coord.    0.3000    0.8000    0.0000
)     Minimum=    9.2943E-08  at reduced coord.    0.7000    0.3500    0.4833
   Integrated=    2.6000E+01
 ETOT 10  -91.752253007740    -3.346E-04 2.215E-04 7.190E+00
 scprqt: <Vxc>= -1.5631121E-01 hartree

 Pulay update with  7 previous iterations:
 mixing of old trial potential: alpha(m:m-4)=  0.531      0.365      0.627     -0.320     -0.217

 Ekinetic   = :     2.906914E+01 Ha ,    7.910116E+02 eV
 Evext_l    = :    -5.724466E+02 Ha ,   -1.557706E+04 eV
 Evext_nl   = :     1.198538E+01 Ha ,    3.261388E+02 eV
 Epsp_core  = :     7.631172E-01 Ha ,    2.076547E+01 eV
 Ehartree   = :     2.657082E+02 Ha ,    7.230287E+03 eV
 Exc_ks     = :    -1.640464E+01 Ha ,   -4.463929E+02 eV
 Enn        = :     1.895732E+02 Ha ,    5.158549E+03 eV
 Etot       = :    -9.175225E+01 Ha ,   -2.496706E+03 eV

 Cartesian components of stress tensor (hartree/bohr^3)
  sigma(1 1)=  6.70684306E-04  sigma(3 2)=  1.41847705E-06
  sigma(2 2)=  5.69466145E-04  sigma(3 1)= -3.21701413E-07
  sigma(3 3)=  1.17825566E-03  sigma(2 1)= -8.89773328E-05

--- !ScfConvergenceWarning
message: |
    nstep 10 was not enough SCF cycles to converge.
...

 scprqt:  WARNING -
  nstep=   10 was not enough SCF cycles to converge;
  maximum energy difference=  3.346E-04 exceeds toldfe=  1.000E-06

 fftdatar_write: About to write data to: mos2o_DEN with iomode: IO_MODE_FORTRAN
 Integrated electronic density in atomic spheres:
 Atom  Sphere_radius  Integrated_density
    1        2.00000         10.44790586
    2        2.00000          3.84348091
    3        2.00000          3.83926958

 ----iterations are completed or convergence reached----

 === Gap info ===
  >>>> For spin  1
   Minimum direct gap =   2.2824 [eV], located at k-point      :   0.3333  0.0000  0.0000
   Fundamental gap    =   1.9945 [eV], Top of valence bands at :   0.0000  0.0000  0.0000
                                       Bottom of conduction at :   0.3333  0.0000  0.0000
 Mean square residual over all n,k,spin=   81.481E-07; max=  22.145E-05
   0.0000  0.0000  0.0000    1  2.21454E-04 kpt; spin; max resid(k); each band:
  3.41E-08 1.88E-08 2.26E-08 1.35E-08 3.28E-07 3.20E-07 6.19E-07 3.48E-07
  1.61E-07 2.03E-07 6.23E-07 3.13E-07 2.79E-07 2.21E-04
   0.3333  0.0000  0.0000    1  6.47842E-07 kpt; spin; max resid(k); each band:
  3.26E-08 1.41E-08 1.85E-08 1.48E-08 2.79E-07 2.60E-07 2.29E-07 2.72E-07
  4.53E-07 3.86E-07 2.86E-07 2.63E-07 2.54E-07 6.48E-07

   outwf: writing wavefunctions to: mos2o_WFK with iomode: IO_MODE_FORTRAN_MASTER
 prteigrs : about to open file mos2o_EIG
 Fermi (or HOMO) energy (hartree) =  -0.08153   Average Vxc (hartree)=  -0.15631
 Eigenvalues (hartree) for nkpt=   2  k points:
 kpt#   1, nband= 14, wtk=  0.33333, kpt=  0.0000  0.0000  0.0000 (reduced coord)
  -2.23463   -1.37343   -1.37026   -1.34909   -0.57222   -0.55169   -0.25140   -0.16351
  -0.11798   -0.11511   -0.09665   -0.08828   -0.08153    0.01384
 kpt#   2, nband= 14, wtk=  0.66667, kpt=  0.3333  0.0000  0.0000 (reduced coord)
  -2.23116   -1.38322   -1.36851   -1.35152   -0.52431   -0.51874   -0.23051   -0.22053
  -0.19845   -0.15314   -0.13379   -0.09902   -0.09211   -0.00824
 Total charge density [el/Bohr^3]
)     Maximum=    8.5216E-01  at reduced coord.    0.3000    0.8000    0.0000
)Next maximum=    8.5216E-01  at reduced coord.    0.3000    0.5000    0.0000
)     Minimum=    9.2943E-08  at reduced coord.    0.7000    0.3500    0.4833
)Next minimum=    9.3577E-08  at reduced coord.    0.7000    0.3500    0.5167
   Integrated=    2.6000E+01

 Cartesian components of stress tensor (hartree/bohr^3)
  sigma(1 1)=  6.70684306E-04  sigma(3 2)=  1.41847705E-06
  sigma(2 2)=  5.69466145E-04  sigma(3 1)= -3.21701413E-07
  sigma(3 3)=  1.17825566E-03  sigma(2 1)= -8.89773328E-05

-Cartesian components of stress tensor (GPa)         [Pressure= -2.3717E+01 GPa]
- sigma(1 1)=  1.97322102E+01  sigma(3 2)=  4.17330285E-02
- sigma(2 2)=  1.67542696E+01  sigma(3 1)= -9.46478076E-03
- sigma(3 3)=  3.46654724E+01  sigma(2 1)= -2.61780307E+00

== END DATASET(S) ==============================================================

 -outvars: echo values of variables after computation  --------

 These variables are accessible in NetCDF format (mos2o_OUT.nc)

            acell      5.9526373186E+00  5.9526373186E+00  3.7794522658E+01 Bohr
              amu      9.59400000E+01  3.20660000E+01
      chksymbreak           0
           diemac      1.20000000E+01
             ecut      1.20000000E+01 Hartree
           etotal     -9.1752253008E+01
            fcart     -1.4962281439E-02  8.7211809731E-03  8.9002306337E-04
                       7.4217286866E-03 -4.3637125997E-03  7.7418422508E-02
                       7.5405527521E-03 -4.3574683734E-03 -7.8308445571E-02
-          fftalg         512
           istwfk        2    0
              ixc          11
              kpt      0.00000000E+00  0.00000000E+00  0.00000000E+00
                       3.33333333E-01  0.00000000E+00  0.00000000E+00
         kptrlatt        3    0    0      0    1    0      0    0    1
          kptrlen      5.95263732E+00
P           mkmem           2
            natom           3
            nband          14
            ngfft          20      20     120
             nkpt           2
            nstep          10
             nsym           1
           ntypat           2
              occ      2.000000  2.000000  2.000000  2.000000  2.000000  2.000000
                       2.000000  2.000000  2.000000  2.000000  2.000000  2.000000
                       2.000000  0.000000
            rprim      5.0000000000E-01 -8.6602540378E-01  0.0000000000E+00
                       5.0000000000E-01  8.6602540378E-01  0.0000000000E+00
                       0.0000000000E+00  0.0000000000E+00  1.0000000000E+00
          spgroup           1
           strten      6.7068430600E-04  5.6946614462E-04  1.1782556575E-03
                       1.4184770455E-06 -3.2170141340E-07 -8.8977332824E-05
           toldfe      1.00000000E-06 Hartree
            typat      1  2  2
              wtk        0.33333    0.66667
           xangst      1.5750000000E+00  9.0932667397E-01  0.0000000000E+00
                       1.5750000000E+00 -9.0932667397E-01 -1.8388847000E+00
                       1.5750000000E+00 -9.0932667397E-01  1.8388847000E+00
            xcart      2.9763186593E+00  1.7183783791E+00  0.0000000000E+00
                       2.9763186593E+00 -1.7183783791E+00 -3.4749884730E+00
                       2.9763186593E+00 -1.7183783791E+00  3.4749884730E+00
             xred      3.3333333333E-01  6.6666666667E-01  0.0000000000E+00
                       6.6666666667E-01  3.3333333333E-01 -9.1944235000E-02
                       6.6666666667E-01  3.3333333333E-01  9.1944235000E-02
            znucl       42.00000   16.00000

 Calculation completed.
.Delivered   2 WARNINGs and   3 COMMENTs to log file.

--- !FinalSummary
program: abinit
version: 9.10.3
start_datetime: Mon May 05 15:46:56 2025
end_datetime: Mon May 05 15:47:09 2025
overall_cpu_time:           6.2
overall_wall_time:          12.5
exit_requested_by_user: no
timelimit: 0
pseudos:
    Mo  : 228091cb5782e08cb8d68936b3c7e57b
    S   : ee4b2e2802f5df21cf2ecc26b1029f69
usepaw: 0
mpi_procs: 1
omp_threads: 1
num_warnings: 2
num_comments: 3
...