.Version 9.10.3 of ABINIT

 ABINIT is a project of the Universite Catholique de Louvain,
 Corning Inc. and other collaborators, see ~abinit/doc/developers/contributors.txt .
 acknowledgments of the ABINIT effort.

.Starting date : Mon  5 May 2025.
- ( at 17h09 )

- input  file    -> mos2.abi
- output file    -> mos2.abo
- root for input  files -> mos2i
- root for output files -> mos2o

 DATASET    1 : space group P1 (#  1); Bravais aP (primitive triclinic)
     intxc =       0    ionmov =       0      iscf =       7    lmnmax =       6
     lnmax =       6     mgfft =     120  mpssoang =       3    mqgrid =    5894
     natom =       3  nloc_mem =       1    nspden =       1   nspinor =       1
    nsppol =       1      nsym =       1    n1xccc =    2501    ntypat =       2
    occopt =       1   xclevel =       2
-    mband =          14        mffmem =           1         mkmem =           2
       mpw =        2310          nfft =       48000          nkpt =           2
  Rough estimation (10% accuracy) of disk space for files :

 DATASET    2 : space group P1 (#  1); Bravais aP (primitive triclinic)
     intxc =       0    ionmov =       0      iscf =      -2    lmnmax =       6
     lnmax =       6     mgfft =     120  mpssoang =       3    mqgrid =    5894
     natom =       3  nloc_mem =       1    nspden =       1   nspinor =       1
    nsppol =       1      nsym =       1    n1xccc =    2501    ntypat =       2
    occopt =       1   xclevel =       2
-    mband =           8        mffmem =           1         mkmem =          77
       mpw =        2327          nfft =       48000          nkpt =          77
  Rough estimation (10% accuracy) of disk space for files :

------------- Echo of variables that govern the present computation ------------
-
- outvars: echo of selected default values
-   iomode0 =  0 , fftalg0 =512 , wfoptalg0 =  0
-
- outvars: echo of global parameters not present in the input file
-  max_nthreads =    0
-
 -outvars: echo values of preprocessed input variables --------
            acell      5.9526373186E+00  5.9526373186E+00  3.7794522658E+01 Bohr
              amu      9.59400000E+01  3.20660000E+01
      chksymbreak           0
             ecut      1.20000000E+01 Hartree
           enunit1          0
           enunit2          1
-          fftalg         512
           getden1          0
           getden2         -1
             iscf1          7
             iscf2         -2
           istwfk1       2    0
           istwfk2       2    0    0    0    0    0    0    0    0    0
                         0    0    0    0    0    0    0    0    0    0
                         0    0    0    0    0    0    0    0    0    0
                         3    0    0    0    0    0    0    0    0    0
                         0    0    0    0    0    0    0    0    0    0
                       outvar_i_n : Printing only first  50 k-points.
              ixc          11
           jdtset        1    2
              kpt1     0.00000000E+00  0.00000000E+00  0.00000000E+00
                       3.33333333E-01  0.00000000E+00  0.00000000E+00
              kpt2     0.00000000E+00  0.00000000E+00  0.00000000E+00
                       1.66666667E-02  1.66666667E-02  0.00000000E+00
                       3.33333333E-02  3.33333333E-02  0.00000000E+00
                       5.00000000E-02  5.00000000E-02  0.00000000E+00
                       6.66666667E-02  6.66666667E-02  0.00000000E+00
                       8.33333333E-02  8.33333333E-02  0.00000000E+00
                       1.00000000E-01  1.00000000E-01  0.00000000E+00
                       1.16666667E-01  1.16666667E-01  0.00000000E+00
                       1.33333333E-01  1.33333333E-01  0.00000000E+00
                       1.50000000E-01  1.50000000E-01  0.00000000E+00
                       1.66666667E-01  1.66666667E-01  0.00000000E+00
                       1.83333333E-01  1.83333333E-01  0.00000000E+00
                       2.00000000E-01  2.00000000E-01  0.00000000E+00
                       2.16666667E-01  2.16666667E-01  0.00000000E+00
                       2.33333333E-01  2.33333333E-01  0.00000000E+00
                       2.50000000E-01  2.50000000E-01  0.00000000E+00
                       2.66666667E-01  2.66666667E-01  0.00000000E+00
                       2.83333333E-01  2.83333333E-01  0.00000000E+00
                       3.00000000E-01  3.00000000E-01  0.00000000E+00
                       3.16666667E-01  3.16666667E-01  0.00000000E+00
                       3.33333333E-01  3.33333333E-01  0.00000000E+00
                       3.50000000E-01  3.00000000E-01  0.00000000E+00
                       3.66666667E-01  2.66666667E-01  0.00000000E+00
                       3.83333333E-01  2.33333333E-01  0.00000000E+00
                       4.00000000E-01  2.00000000E-01  0.00000000E+00
                       4.16666667E-01  1.66666667E-01  0.00000000E+00
                       4.33333333E-01  1.33333333E-01  0.00000000E+00
                       4.50000000E-01  1.00000000E-01  0.00000000E+00
                       4.66666667E-01  6.66666667E-02  0.00000000E+00
                       4.83333333E-01  3.33333333E-02  0.00000000E+00
                       5.00000000E-01  0.00000000E+00  0.00000000E+00
                       5.10869565E-01  2.17391304E-02  2.17391304E-02
                       5.21739130E-01  4.34782609E-02  4.34782609E-02
                       5.32608696E-01  6.52173913E-02  6.52173913E-02
                       5.43478261E-01  8.69565217E-02  8.69565217E-02
                       5.54347826E-01  1.08695652E-01  1.08695652E-01
                       5.65217391E-01  1.30434783E-01  1.30434783E-01
                       5.76086957E-01  1.52173913E-01  1.52173913E-01
                       5.86956522E-01  1.73913043E-01  1.73913043E-01
                       5.97826087E-01  1.95652174E-01  1.95652174E-01
                       6.08695652E-01  2.17391304E-01  2.17391304E-01
                       6.19565217E-01  2.39130435E-01  2.39130435E-01
                       6.30434783E-01  2.60869565E-01  2.60869565E-01
                       6.41304348E-01  2.82608696E-01  2.82608696E-01
                       6.52173913E-01  3.04347826E-01  3.04347826E-01
                       6.63043478E-01  3.26086957E-01  3.26086957E-01
                       6.73913043E-01  3.47826087E-01  3.47826087E-01
                       6.84782609E-01  3.69565217E-01  3.69565217E-01
                       6.95652174E-01  3.91304348E-01  3.91304348E-01
                       7.06521739E-01  4.13043478E-01  4.13043478E-01
                       outvar_i_n : Printing only first  50 k-points.
           kptopt1          1
           kptopt2         -3
         kptrlatt        3    0    0      0    1    0      0    0    1
          kptrlen1     5.95263732E+00
          kptrlen2     3.00000000E+01
P           mkmem1          2
P           mkmem2         77
            natom           3
            nband1         14
            nband2          8
           nbdbuf1          0
           nbdbuf2          2
           ndtset           2
           ndivsm1          0
           ndivsm2         10
            ngfft          20      20     120
             nkpt1          2
             nkpt2         77
            nstep          10
             nsym           1
           ntypat           2
              occ      2.000000  2.000000  2.000000  2.000000  2.000000  2.000000
                       2.000000  2.000000  2.000000  2.000000  2.000000  2.000000
                       2.000000  0.000000
            rprim      5.0000000000E-01 -8.6602540378E-01  0.0000000000E+00
                       5.0000000000E-01  8.6602540378E-01  0.0000000000E+00
                       0.0000000000E+00  0.0000000000E+00  1.0000000000E+00
           shiftk1     0.00000000E+00  0.00000000E+00  0.00000000E+00
           shiftk2     5.00000000E-01  5.00000000E-01  5.00000000E-01
          spgroup           1
           toldfe1     1.00000000E-06 Hartree
           toldfe2     0.00000000E+00 Hartree
           tolwfr1     0.00000000E+00
           tolwfr2     1.00000000E-12
            typat      1  2  2
              wtk1       0.33333    0.66667
              wtk2       1.00000    1.00000    1.00000    1.00000    1.00000    1.00000
                         1.00000    1.00000    1.00000    1.00000    1.00000    1.00000
                         1.00000    1.00000    1.00000    1.00000    1.00000    1.00000
                         1.00000    1.00000    1.00000    1.00000    1.00000    1.00000
                         1.00000    1.00000    1.00000    1.00000    1.00000    1.00000
                         1.00000    1.00000    1.00000    1.00000    1.00000    1.00000
                         1.00000    1.00000    1.00000    1.00000    1.00000    1.00000
                         1.00000    1.00000    1.00000    1.00000    1.00000    1.00000
                         1.00000    1.00000
                       outvars : Printing only first  50 k-points.
           xangst      1.5750000000E+00  9.0932667397E-01  0.0000000000E+00
                       1.5750000000E+00 -9.0932667397E-01 -1.8388847000E+00
                       1.5750000000E+00 -9.0932667397E-01  1.8388847000E+00
            xcart      2.9763186593E+00  1.7183783791E+00  0.0000000000E+00
                       2.9763186593E+00 -1.7183783791E+00 -3.4749884730E+00
                       2.9763186593E+00 -1.7183783791E+00  3.4749884730E+00
             xred      3.3333333333E-01  6.6666666667E-01  0.0000000000E+00
                       6.6666666667E-01  3.3333333333E-01 -9.1944235000E-02
                       6.6666666667E-01  3.3333333333E-01  9.1944235000E-02
            znucl       42.00000   16.00000

 chkinp: Checking input parameters for consistency, jdtset=   1.

 chkinp: Checking input parameters for consistency, jdtset=   2.

== DATASET  1 ==================================================================
-   mpi_nproc: 1, omp_nthreads: -1 (-1 if OMP is not activated)

--- !DatasetInfo
iteration_state: {dtset: 1, }
dimensions: {natom: 3, nkpt: 2, mband: 14, nsppol: 1, nspinor: 1, nspden: 1, mpw: 2310, }
cutoff_energies: {ecut:  12.0, pawecutdg:  -1.0, }
electrons: {nelect:   2.60000000E+01, charge:   0.00000000E+00, occopt:   1.00000000E+00, tsmear:   1.00000000E-02, }
meta: {optdriver: 0, ionmov: 0, optcell: 0, iscf: 7, paral_kgb: 0, }
...

 Real(R)+Recip(G) space primitive vectors, cartesian coordinates (Bohr,Bohr^-1):
 R(1)=  2.9763187 -5.1551351  0.0000000  G(1)=  0.1679928 -0.0969907  0.0000000
 R(2)=  2.9763187  5.1551351  0.0000000  G(2)=  0.1679928  0.0969907  0.0000000
 R(3)=  0.0000000  0.0000000 37.7945227  G(3)=  0.0000000  0.0000000  0.0264589
 Unit cell volume ucvol=  1.1597873E+03 bohr^3
 Angles (23,13,12)=  9.00000000E+01  9.00000000E+01  1.20000000E+02 degrees

 getcut: wavevector=  0.0000  0.0000  0.0000  ngfft=  20  20 120
         ecut(hartree)=     12.000   => boxcut(ratio)=   2.03609

--- Pseudopotential description ------------------------------------------------
- pspini: atom type   1  psp file is ./persudo/Mo.psp8
[...]
 -60.13731  -37.21052  -36.71947  -36.31415  -13.30957  -13.25125   -6.84857   -6.43742
 kpt#  30, nband=  8, wtk=  1.00000, kpt=  0.4833  0.0333  0.0000 (reduced coord)
 -60.17214  -37.21424  -36.72019  -36.30708  -13.32764  -13.26651   -6.89029   -6.45871
 kpt#  31, nband=  8, wtk=  1.00000, kpt=  0.5000  0.0000  0.0000 (reduced coord)
 -60.18349  -37.21537  -36.72040  -36.30479  -13.33272  -13.27294   -6.90290   -6.46544
 kpt#  32, nband=  8, wtk=  1.00000, kpt=  0.5109  0.0217  0.0217 (reduced coord)
 -60.16923  -37.21332  -36.72052  -36.30529  -13.33849  -13.28262   -6.87693   -6.44503
 kpt#  33, nband=  8, wtk=  1.00000, kpt=  0.5217  0.0435  0.0435 (reduced coord)
 -60.14513  -37.20682  -36.72119  -36.30697  -13.35571  -13.31139   -6.79550   -6.38526
 kpt#  34, nband=  8, wtk=  1.00000, kpt=  0.5326  0.0652  0.0652 (reduced coord)
 -60.15294  -37.19669  -36.72234  -36.30999  -13.38704  -13.35801   -6.66926   -6.28967
 kpt#  35, nband=  8, wtk=  1.00000, kpt=  0.5435  0.0870  0.0870 (reduced coord)
 -60.17000  -37.18311  -36.72389  -36.31415  -13.43377  -13.41421   -6.50653   -6.15962
 kpt#  36, nband=  8, wtk=  1.00000, kpt=  0.5543  0.1087  0.1087 (reduced coord)
 -60.17038  -37.16657  -36.72551  -36.31923  -13.49893  -13.46549   -6.31848   -5.99891
 kpt#  37, nband=  8, wtk=  1.00000, kpt=  0.5652  0.1304  0.1304 (reduced coord)
 -60.16993  -37.14766  -36.72741  -36.32520  -13.57420  -13.51486   -6.11937   -5.81378
 kpt#  38, nband=  8, wtk=  1.00000, kpt=  0.5761  0.1522  0.1522 (reduced coord)
 -60.18698  -37.12740  -36.72952  -36.33207  -13.65133  -13.56538   -5.93321   -5.61274
 kpt#  39, nband=  8, wtk=  1.00000, kpt=  0.5870  0.1739  0.1739 (reduced coord)
 -60.17273  -37.10631  -36.73146  -36.33939  -13.72181  -13.61183   -5.78466   -5.38642
 kpt#  40, nband=  8, wtk=  1.00000, kpt=  0.5978  0.1957  0.1957 (reduced coord)
 -60.16697  -37.08514  -36.73343  -36.34749  -13.78610  -13.65388   -5.69511   -5.22779
 kpt#  41, nband=  8, wtk=  1.00000, kpt=  0.6087  0.2174  0.2174 (reduced coord)
 -60.17142  -37.06470  -36.73516  -36.35627  -13.83971  -13.69189   -5.66843   -5.09423
 kpt#  42, nband=  8, wtk=  1.00000, kpt=  0.6196  0.2391  0.2391 (reduced coord)
 -60.17968  -37.04585  -36.73651  -36.36572  -13.88130  -13.72203   -5.69122   -5.16009
 kpt#  43, nband=  8, wtk=  1.00000, kpt=  0.6304  0.2609  0.2609 (reduced coord)
 -60.21344  -37.02904  -36.73770  -36.37609  -13.91220  -13.74300   -5.74470   -5.23407
 kpt#  44, nband=  8, wtk=  1.00000, kpt=  0.6413  0.2826  0.2826 (reduced coord)
 -60.19740  -37.01414  -36.73811  -36.38710  -13.92349  -13.75228   -5.80798   -5.31520
 kpt#  45, nband=  8, wtk=  1.00000, kpt=  0.6522  0.3043  0.3043 (reduced coord)
 -60.20058  -37.00190  -36.73816  -36.39914  -13.92133  -13.75098   -5.87132   -5.39207
 kpt#  46, nband=  8, wtk=  1.00000, kpt=  0.6630  0.3261  0.3261 (reduced coord)
 -60.21162  -36.99236  -36.73784  -36.41213  -13.90294  -13.73908   -5.92634   -5.45335
 kpt#  47, nband=  8, wtk=  1.00000, kpt=  0.6739  0.3478  0.3478 (reduced coord)
 -60.19891  -36.98551  -36.73684  -36.42578  -13.86859  -13.71438   -5.96867   -5.50849
 kpt#  48, nband=  8, wtk=  1.00000, kpt=  0.6848  0.3696  0.3696 (reduced coord)
 -60.17956  -36.98140  -36.73531  -36.44001  -13.81885  -13.67852   -5.99736   -5.54864
 kpt#  49, nband=  8, wtk=  1.00000, kpt=  0.6957  0.3913  0.3913 (reduced coord)
 -60.17852  -36.98019  -36.73349  -36.45438  -13.75766  -13.63358   -6.01487   -5.57925
 kpt#  50, nband=  8, wtk=  1.00000, kpt=  0.7065  0.4130  0.4130 (reduced coord)
 -60.17997  -36.98194  -36.73133  -36.46813  -13.68527  -13.58003   -6.02271   -5.61182
 kpt#  51, nband=  8, wtk=  1.00000, kpt=  0.7174  0.4348  0.4348 (reduced coord)
 -60.18120  -36.98633  -36.72901  -36.48063  -13.60205  -13.52102   -6.02574   -5.64626
 kpt#  52, nband=  8, wtk=  1.00000, kpt=  0.7283  0.4565  0.4565 (reduced coord)
 -60.16309  -36.99353  -36.72651  -36.49090  -13.51321  -13.45521   -6.02856   -5.69561
 kpt#  53, nband=  8, wtk=  1.00000, kpt=  0.7391  0.4783  0.4783 (reduced coord)
 -60.14264  -37.00299  -36.72397  -36.49855  -13.42290  -13.38730   -6.03954   -5.76774
 kpt#  54, nband=  8, wtk=  1.00000, kpt=  0.7500  0.5000  0.5000 (reduced coord)
 -60.10980  -37.01417  -36.72175  -36.50293  -13.33658  -13.31686   -6.06524   -5.86440
 kpt#  55, nband=  8, wtk=  1.00000, kpt=  0.7609  0.5217  0.5217 (reduced coord)
 -60.12233  -37.02706  -36.71972  -36.50429  -13.27459  -13.24388   -6.12078   -5.97354
 kpt#  56, nband=  8, wtk=  1.00000, kpt=  0.7717  0.5435  0.5435 (reduced coord)
 -60.12433  -37.04028  -36.71816  -36.50222  -13.22849  -13.17734   -6.19923   -6.07983
 kpt#  57, nband=  8, wtk=  1.00000, kpt=  0.7826  0.5652  0.5652 (reduced coord)
 -60.10095  -37.05251  -36.71691  -36.49703  -13.19653  -13.12977   -6.28878   -6.16346
 kpt#  58, nband=  8, wtk=  1.00000, kpt=  0.7935  0.5870  0.5870 (reduced coord)
 -60.10004  -37.06346  -36.71641  -36.48892  -13.18456  -13.10937   -6.37155   -6.21421
 kpt#  59, nband=  8, wtk=  1.00000, kpt=  0.8043  0.6087  0.6087 (reduced coord)
 -60.09997  -37.07187  -36.71668  -36.47830  -13.19387  -13.12011   -6.42729   -6.22255
 kpt#  60, nband=  8, wtk=  1.00000, kpt=  0.8152  0.6304  0.6304 (reduced coord)
 -60.10943  -37.07716  -36.71784  -36.46554  -13.22554  -13.16579   -6.44043   -6.18337
 kpt#  61, nband=  8, wtk=  1.00000, kpt=  0.8261  0.6522  0.6522 (reduced coord)
 -60.12334  -37.07878  -36.71980  -36.45097  -13.28185  -13.24330   -6.40519   -6.09404
 kpt#  62, nband=  8, wtk=  1.00000, kpt=  0.8370  0.6739  0.6739 (reduced coord)
 -60.13984  -37.07665  -36.72231  -36.43487  -13.36536  -13.34598   -6.31693   -5.95570
 kpt#  63, nband=  8, wtk=  1.00000, kpt=  0.8478  0.6957  0.6957 (reduced coord)
 -60.17431  -37.07033  -36.72578  -36.41769  -13.49334  -13.44912   -6.18260   -5.77466
 kpt#  64, nband=  8, wtk=  1.00000, kpt=  0.8587  0.7174  0.7174 (reduced coord)
 -60.18544  -37.05989  -36.72982  -36.39941  -13.64625  -13.55749   -6.00739   -5.55738
 kpt#  65, nband=  8, wtk=  1.00000, kpt=  0.8696  0.7391  0.7391 (reduced coord)
 -60.17914  -37.04542  -36.73450  -36.38040  -13.81206  -13.67284   -5.81049   -5.31720
 kpt#  66, nband=  8, wtk=  1.00000, kpt=  0.8804  0.7609  0.7609 (reduced coord)
 -60.20783  -37.02836  -36.73978  -36.36110  -13.98606  -13.79499   -5.63196   -5.05975
 kpt#  67, nband=  8, wtk=  1.00000, kpt=  0.8913  0.7826  0.7826 (reduced coord)
 -60.22381  -37.00893  -36.74534  -36.34167  -14.16054  -13.91786   -5.54247   -4.85895
 kpt#  68, nband=  8, wtk=  1.00000, kpt=  0.9022  0.8043  0.8043 (reduced coord)
 -60.24510  -36.98802  -36.75114  -36.32246  -14.33182  -14.03824   -5.57909   -4.66321
 kpt#  69, nband=  8, wtk=  1.00000, kpt=  0.9130  0.8261  0.8261 (reduced coord)
 -60.25167  -36.96644  -36.75678  -36.30371  -14.49307  -14.15288   -5.68599   -4.51677
 kpt#  70, nband=  8, wtk=  1.00000, kpt=  0.9239  0.8478  0.8478 (reduced coord)
 -60.26062  -36.94515  -36.76240  -36.28570  -14.64396  -14.25913   -5.82027   -4.44866
 kpt#  71, nband=  8, wtk=  1.00000, kpt=  0.9348  0.8696  0.8696 (reduced coord)
 -60.27737  -36.92490  -36.76774  -36.26901  -14.78126  -14.35442   -5.96056   -4.36402
 kpt#  72, nband=  8, wtk=  1.00000, kpt=  0.9457  0.8913  0.8913 (reduced coord)
 -60.26479  -36.90635  -36.77233  -36.25375  -14.89908  -14.43707   -6.09093   -4.28641
 kpt#  73, nband=  8, wtk=  1.00000, kpt=  0.9565  0.9130  0.9130 (reduced coord)
 -60.26831  -36.89031  -36.77638  -36.24066  -14.99920  -14.50689   -6.20826   -4.21788
 kpt#  74, nband=  8, wtk=  1.00000, kpt=  0.9674  0.9348  0.9348 (reduced coord)
 -60.26714  -36.87733  -36.77970  -36.22993  -15.07806  -14.56265   -6.30539   -4.16336
 kpt#  75, nband=  8, wtk=  1.00000, kpt=  0.9783  0.9565  0.9565 (reduced coord)
 -60.27967  -36.86781  -36.78223  -36.22208  -15.13725  -14.60354   -6.37877   -4.12420
 kpt#  76, nband=  8, wtk=  1.00000, kpt=  0.9891  0.9783  0.9783 (reduced coord)
 -60.28259  -36.86194  -36.78383  -36.21728  -15.17355  -14.62774   -6.42386   -4.10064
 kpt#  77, nband=  8, wtk=  1.00000, kpt=  1.0000  1.0000  1.0000 (reduced coord)
 -60.30098  -36.86023  -36.78441  -36.21576  -15.18757  -14.63652   -6.44045   -4.09260

== END DATASET(S) ==============================================================

 -outvars: echo values of variables after computation  --------
            acell      5.9526373186E+00  5.9526373186E+00  3.7794522658E+01 Bohr
              amu      9.59400000E+01  3.20660000E+01
      chksymbreak           0
             ecut      1.20000000E+01 Hartree
           enunit1          0
           enunit2          1
           etotal1    -9.1752283410E+01
            fcart1    -1.4795593155E-02  8.5330553409E-03 -1.6145528859E-04
                       7.3989240421E-03 -4.2618628316E-03  7.7765506746E-02
                       7.3966691126E-03 -4.2711925093E-03 -7.7604051457E-02
-          fftalg         512
           getden1          0
           getden2         -1
             iscf1          7
             iscf2         -2
           istwfk1       2    0
           istwfk2       2    0    0    0    0    0    0    0    0    0
                         0    0    0    0    0    0    0    0    0    0
                         0    0    0    0    0    0    0    0    0    0
                         3    0    0    0    0    0    0    0    0    0
                         0    0    0    0    0    0    0    0    0    0
                       outvar_i_n : Printing only first  50 k-points.
              ixc          11
           jdtset        1    2
              kpt1     0.00000000E+00  0.00000000E+00  0.00000000E+00
                       3.33333333E-01  0.00000000E+00  0.00000000E+00
              kpt2     0.00000000E+00  0.00000000E+00  0.00000000E+00
                       1.66666667E-02  1.66666667E-02  0.00000000E+00
                       3.33333333E-02  3.33333333E-02  0.00000000E+00
                       5.00000000E-02  5.00000000E-02  0.00000000E+00
                       6.66666667E-02  6.66666667E-02  0.00000000E+00
                       8.33333333E-02  8.33333333E-02  0.00000000E+00
                       1.00000000E-01  1.00000000E-01  0.00000000E+00
                       1.16666667E-01  1.16666667E-01  0.00000000E+00
                       1.33333333E-01  1.33333333E-01  0.00000000E+00
                       1.50000000E-01  1.50000000E-01  0.00000000E+00
                       1.66666667E-01  1.66666667E-01  0.00000000E+00
                       1.83333333E-01  1.83333333E-01  0.00000000E+00
                       2.00000000E-01  2.00000000E-01  0.00000000E+00
                       2.16666667E-01  2.16666667E-01  0.00000000E+00
                       2.33333333E-01  2.33333333E-01  0.00000000E+00
                       2.50000000E-01  2.50000000E-01  0.00000000E+00
                       2.66666667E-01  2.66666667E-01  0.00000000E+00
                       2.83333333E-01  2.83333333E-01  0.00000000E+00
                       3.00000000E-01  3.00000000E-01  0.00000000E+00
                       3.16666667E-01  3.16666667E-01  0.00000000E+00
                       3.33333333E-01  3.33333333E-01  0.00000000E+00
                       3.50000000E-01  3.00000000E-01  0.00000000E+00
                       3.66666667E-01  2.66666667E-01  0.00000000E+00
                       3.83333333E-01  2.33333333E-01  0.00000000E+00
                       4.00000000E-01  2.00000000E-01  0.00000000E+00
                       4.16666667E-01  1.66666667E-01  0.00000000E+00
                       4.33333333E-01  1.33333333E-01  0.00000000E+00
                       4.50000000E-01  1.00000000E-01  0.00000000E+00
                       4.66666667E-01  6.66666667E-02  0.00000000E+00
                       4.83333333E-01  3.33333333E-02  0.00000000E+00
                       5.00000000E-01  0.00000000E+00  0.00000000E+00
                       5.10869565E-01  2.17391304E-02  2.17391304E-02
                       5.21739130E-01  4.34782609E-02  4.34782609E-02
                       5.32608696E-01  6.52173913E-02  6.52173913E-02
                       5.43478261E-01  8.69565217E-02  8.69565217E-02
                       5.54347826E-01  1.08695652E-01  1.08695652E-01
                       5.65217391E-01  1.30434783E-01  1.30434783E-01
                       5.76086957E-01  1.52173913E-01  1.52173913E-01
                       5.86956522E-01  1.73913043E-01  1.73913043E-01
                       5.97826087E-01  1.95652174E-01  1.95652174E-01
                       6.08695652E-01  2.17391304E-01  2.17391304E-01
                       6.19565217E-01  2.39130435E-01  2.39130435E-01
                       6.30434783E-01  2.60869565E-01  2.60869565E-01
                       6.41304348E-01  2.82608696E-01  2.82608696E-01
                       6.52173913E-01  3.04347826E-01  3.04347826E-01
                       6.63043478E-01  3.26086957E-01  3.26086957E-01
                       6.73913043E-01  3.47826087E-01  3.47826087E-01
                       6.84782609E-01  3.69565217E-01  3.69565217E-01
                       6.95652174E-01  3.91304348E-01  3.91304348E-01
                       7.06521739E-01  4.13043478E-01  4.13043478E-01
                       outvar_i_n : Printing only first  50 k-points.
           kptopt1          1
           kptopt2         -3
         kptrlatt        3    0    0      0    1    0      0    0    1
          kptrlen1     5.95263732E+00
          kptrlen2     3.00000000E+01
P           mkmem1          2
P           mkmem2         77
            natom           3
            nband1         14
            nband2          8
           nbdbuf1          0
           nbdbuf2          2
           ndtset           2
           ndivsm1          0
           ndivsm2         10
            ngfft          20      20     120
             nkpt1          2
             nkpt2         77
            nstep          10
             nsym           1
           ntypat           2
              occ      2.000000  2.000000  2.000000  2.000000  2.000000  2.000000
                       2.000000  2.000000  2.000000  2.000000  2.000000  2.000000
                       2.000000  0.000000
            rprim      5.0000000000E-01 -8.6602540378E-01  0.0000000000E+00
                       5.0000000000E-01  8.6602540378E-01  0.0000000000E+00
                       0.0000000000E+00  0.0000000000E+00  1.0000000000E+00
           shiftk1     0.00000000E+00  0.00000000E+00  0.00000000E+00
           shiftk2     5.00000000E-01  5.00000000E-01  5.00000000E-01
          spgroup           1
           strten1     6.7451113053E-04  5.7665175887E-04  1.1796823235E-03
                       5.8327925101E-08  3.4044112007E-08 -8.4780142943E-05
           toldfe1     1.00000000E-06 Hartree
           toldfe2     0.00000000E+00 Hartree
           tolwfr1     0.00000000E+00
           tolwfr2     1.00000000E-12
            typat      1  2  2
              wtk1       0.33333    0.66667
              wtk2       1.00000    1.00000    1.00000    1.00000    1.00000    1.00000
                         1.00000    1.00000    1.00000    1.00000    1.00000    1.00000
                         1.00000    1.00000    1.00000    1.00000    1.00000    1.00000
                         1.00000    1.00000    1.00000    1.00000    1.00000    1.00000
                         1.00000    1.00000    1.00000    1.00000    1.00000    1.00000
                         1.00000    1.00000    1.00000    1.00000    1.00000    1.00000
                         1.00000    1.00000    1.00000    1.00000    1.00000    1.00000
                         1.00000    1.00000    1.00000    1.00000    1.00000    1.00000
                         1.00000    1.00000
                       outvars : Printing only first  50 k-points.
           xangst      1.5750000000E+00  9.0932667397E-01  0.0000000000E+00
                       1.5750000000E+00 -9.0932667397E-01 -1.8388847000E+00
                       1.5750000000E+00 -9.0932667397E-01  1.8388847000E+00
            xcart      2.9763186593E+00  1.7183783791E+00  0.0000000000E+00
                       2.9763186593E+00 -1.7183783791E+00 -3.4749884730E+00
                       2.9763186593E+00 -1.7183783791E+00  3.4749884730E+00
             xred      3.3333333333E-01  6.6666666667E-01  0.0000000000E+00
                       6.6666666667E-01  3.3333333333E-01 -9.1944235000E-02
                       6.6666666667E-01  3.3333333333E-01  9.1944235000E-02
            znucl       42.00000   16.00000

- Timing analysis has been suppressed with timopt=0

 Suggested references for the acknowledgment of ABINIT usage.

 Calculation completed.
.Delivered  33 WARNINGs and  10 COMMENTs to log file.