.Version 9.10.3 of ABINIT

 ABINIT is a project of the Universite Catholique de Louvain,
 Corning Inc. and other collaborators, see ~abinit/doc/developers/contributors.txt .
 acknowledgments of the ABINIT effort.

.Starting date : Wed  7 May 2025.
- ( at 07h09 )

- input  file    -> mos2_ecut.abi
- output file    -> mos2_ecut.abo
- root for input  files -> mos2_ecuti
- root for output files -> mos2_ecuto

 DATASET   11 : space group P1 (#  1); Bravais aP (primitive triclinic)
     intxc =       0    ionmov =       2      iscf =       7    lmnmax =       6
     lnmax =       6     mgfft =     108  mpssoang =       3    mqgrid =    5381
     natom =       3  nloc_mem =       1    nspden =       1   nspinor =       1
    nsppol =       1      nsym =       1    n1xccc =    2501    ntypat =       2
    occopt =       1   xclevel =       2
-    mband =          14        mffmem =           1         mkmem =           5
       mpw =        1762          nfft =       34992          nkpt =           5
  Rough estimation (10% accuracy) of disk space for files :

[...]

 DATASET   41 : space group P1 (#  1); Bravais aP (primitive triclinic)
     intxc =       0    ionmov =       2      iscf =       7    lmnmax =       6
     lnmax =       6     mgfft =     180  mpssoang =       3    mqgrid =    8507
     natom =       3  nloc_mem =       1    nspden =       1   nspinor =       1
    nsppol =       1      nsym =       1    n1xccc =    2501    ntypat =       2
    occopt =       1   xclevel =       2
-    mband =          14        mffmem =           1         mkmem =           5
       mpw =        6948          nfft =      162000          nkpt =           5
  Rough estimation (10% accuracy) of disk space for files :

------------- Echo of variables that govern the present computation ------------
-
- outvars: echo of selected default values
-   iomode0 =  0 , fftalg0 =512 , wfoptalg0 =  0
-
- outvars: echo of global parameters not present in the input file
-  max_nthreads =    0
-
 -outvars: echo values of preprocessed input variables --------
            acell      5.9526373186E+00  5.9526373186E+00  3.7794522658E+01 Bohr
              amu      9.59400000E+01  3.20660000E+01
      chksymbreak           0
             ecut11    1.00000000E+01 Hartree
             ecut21    1.50000000E+01 Hartree
             ecut31    2.00000000E+01 Hartree
             ecut41    2.50000000E+01 Hartree
-          fftalg         512
           ionmov           2
           istwfk        0    0    0    0    9
              ixc          11
           jdtset       11   21   31   41
              kpt      1.66666667E-01  1.66666667E-01  5.00000000E-01
                       5.00000000E-01  1.66666667E-01  5.00000000E-01
                      -1.66666667E-01  1.66666667E-01  5.00000000E-01
                       1.66666667E-01  5.00000000E-01  5.00000000E-01
                       5.00000000E-01  5.00000000E-01  5.00000000E-01
         kptrlatt        3    0    0      0    3    0      0    0    1
          kptrlen      1.78579120E+01
P           mkmem           5
            natom           3
            nband          14
           ndtset           4
            ngfft11        18      18     108
            ngfft21        24      24     135
            ngfft31        24      24     160
            ngfft41        30      30     180
             nkpt           5
            nstep          10
             nsym           1
            ntime          10
           ntypat           2
              occ      2.000000  2.000000  2.000000  2.000000  2.000000  2.000000
                       2.000000  2.000000  2.000000  2.000000  2.000000  2.000000
                       2.000000  0.000000
        optforces           1
            rprim      5.0000000000E-01 -8.6602540378E-01  0.0000000000E+00
                       5.0000000000E-01  8.6602540378E-01  0.0000000000E+00
                       0.0000000000E+00  0.0000000000E+00  1.0000000000E+00
           shiftk      5.00000000E-01  5.00000000E-01  5.00000000E-01
          spgroup           1
           toldff      5.00000000E-05
           tolmxf      5.00000000E-04
            typat      1  2  2
              wtk        0.22222    0.22222    0.22222    0.22222    0.11111
           xangst      1.5750000000E+00  9.0932667397E-01  0.0000000000E+00
                       1.5750000000E+00 -9.0932667397E-01 -1.8388847000E+00
                       1.5750000000E+00 -9.0932667397E-01  1.8388847000E+00
            xcart      2.9763186593E+00  1.7183783791E+00  0.0000000000E+00
                       2.9763186593E+00 -1.7183783791E+00 -3.4749884730E+00
                       2.9763186593E+00 -1.7183783791E+00  3.4749884730E+00
             xred      3.3333333333E-01  6.6666666667E-01  0.0000000000E+00
                       6.6666666667E-01  3.3333333333E-01 -9.1944235000E-02
                       6.6666666667E-01  3.3333333333E-01  9.1944235000E-02
            znucl       42.00000   16.00000

 chkinp: Checking input parameters for consistency, jdtset=  11.

[...]

 chkinp: Checking input parameters for consistency, jdtset=  41.

== DATASET 11 ==================================================================
-   mpi_nproc: 1, omp_nthreads: -1 (-1 if OMP is not activated)

--- !DatasetInfo
iteration_state: {dtset: 11, }
dimensions: {natom: 3, nkpt: 5, mband: 14, nsppol: 1, nspinor: 1, nspden: 1, mpw: 1762, }
cutoff_energies: {ecut:  10.0, pawecutdg:  -1.0, }
electrons: {nelect:   2.60000000E+01, charge:   0.00000000E+00, occopt:   1.00000000E+00, tsmear:   1.00000000E-02, }
meta: {optdriver: 0, ionmov: 2, optcell: 0, iscf: 7, paral_kgb: 0, }
...

 Real(R)+Recip(G) space primitive vectors, cartesian coordinates (Bohr,Bohr^-1):
 R(1)=  2.9763187 -5.1551351  0.0000000  G(1)=  0.1679928 -0.0969907  0.0000000
 R(2)=  2.9763187  5.1551351  0.0000000  G(2)=  0.1679928  0.0969907  0.0000000
 R(3)=  0.0000000  0.0000000 37.7945227  G(3)=  0.0000000  0.0000000  0.0264589
 Unit cell volume ucvol=  1.1597873E+03 bohr^3
 Angles (23,13,12)=  9.00000000E+01  9.00000000E+01  1.20000000E+02 degrees

 getcut: wavevector=  0.0000  0.0000  0.0000  ngfft=  18  18 108
         ecut(hartree)=     10.000   => boxcut(ratio)=   2.00738

--- Pseudopotential description ------------------------------------------------
- pspini: atom type   1  psp file is ./persudo/Mo.psp8
- pspatm: opening atomic psp file    ./persudo/Mo.psp8
- Mo    ONCVPSP-3.2.3.1  r_core=   1.45541   1.45541   1.35488
- 42.00000  14.00000    170510                znucl, zion, pspdat
    8   11    2    4       600   0.00000      pspcod,pspxc,lmax,lloc,mmax,r2well
    5.99000000000000    3.00000000000000    0.00000000000000   rchrg,fchrg,qchrg
     nproj     2     2     2
     extension_switch     1
  pspatm : epsatm=   15.95693586
         --- l  ekb(1:nproj) -->
             0   13.833287    1.350687
             1    8.015347    1.134034
             2    2.765699    0.969071
 pspatm: atomic psp has been read  and splines computed

- pspini: atom type   2  psp file is ./persudo/S.psp8
- pspatm: opening atomic psp file    ./persudo/S.psp8
- S     ONCVPSP-4.0.1  r_core=   1.45687   1.45687   1.45687
- 16.00000   6.00000    220131                znucl, zion, pspdat
    8   11    2    4       600   0.00000      pspcod,pspxc,lmax,lloc,mmax,r2well
    5.99000000000000    6.00000000000000    0.00000000000000   rchrg,fchrg,qchrg
     nproj     2     2     2
     extension_switch     1
  pspatm : epsatm=    9.04179351
         --- l  ekb(1:nproj) -->
             0    6.774234    0.542270
             1    3.022426    0.737017
             2   -5.033160   -1.531047
 pspatm: atomic psp has been read  and splines computed

   8.85053595E+02                                ecore*ucvol(ha*bohr**3)

_setup2: Arith. and geom. avg. npw (full set) are    1755.111    1755.084

=== [ionmov= 2] Broyden-Fletcher-Goldfard-Shanno method (forces)

--- Iteration: ( 1/10) Internal Cycle: (1/1)

---SELF-CONSISTENT-FIELD CONVERGENCE--------------------------------------------

--- !BeginCycle
iteration_state: {dtset: 11, itime: 1, icycle: 1, }
solver: {iscf: 7, nstep: 10, nline: 4, wfoptalg: 0, }
tolerances: {toldff: 5.00E-05, }
...

     iter   Etot(hartree)      deltaE(h)  residm     vres2    diffor    maxfor
 ETOT  1  -90.293860987787    -9.029E+01 4.216E-02 4.909E+03 1.030E-01 1.030E-01
 ETOT  2  -85.706111725742     4.588E+00 7.706E-03 1.920E+04 1.092E+00 9.889E-01
 ETOT  3  -91.525011446588    -5.819E+00 9.744E-02 5.046E+01 9.512E-01 4.146E-02
 ETOT  4  -91.574404681814    -4.939E-02 2.120E-03 1.008E+01 3.358E-02 6.805E-02
 ETOT  5  -91.577042440220    -2.638E-03 6.528E-04 1.208E+01 1.392E-02 7.639E-02
 ETOT  6  -91.577717228756    -6.748E-04 4.421E-04 6.419E+00 6.947E-03 7.028E-02
 ETOT  7  -91.578181634034    -4.644E-04 9.954E-05 2.618E+00 3.374E-03 6.691E-02
 ETOT  8  -91.578301843849    -1.202E-04 9.157E-05 1.363E+00 1.447E-03 6.547E-02
 ETOT  9  -91.578355324926    -5.348E-05 1.791E-05 5.950E-01 9.032E-04 6.459E-02
 ETOT 10  -91.578371910608    -1.659E-05 1.727E-05 2.536E-01 5.707E-04 6.402E-02

 Cartesian components of stress tensor (hartree/bohr^3)
  sigma(1 1)=  1.08501086E-03  sigma(3 2)=  3.94420485E-08
  sigma(2 2)=  1.12514550E-03  sigma(3 1)= -4.07659405E-09
  sigma(3 3)=  1.40743843E-03  sigma(2 1)=  1.62334637E-08

 scprqt:  WARNING -
  nstep=   10 was not enough SCF cycles to converge;
  maximum force difference=  5.707E-04 exceeds toldff=  5.000E-05

--- !ResultsGS
iteration_state: {dtset: 11, itime: 1, icycle: 1, }
comment   : Summary of ground state results
lattice_vectors:
- [  2.9763187,  -5.1551351,   0.0000000, ]
- [  2.9763187,   5.1551351,   0.0000000, ]
- [  0.0000000,   0.0000000,  37.7945227, ]
lattice_lengths: [   5.95264,    5.95264,   37.79452, ]
lattice_angles: [ 90.000,  90.000, 120.000, ] # degrees, (23, 13, 12)
lattice_volume:   1.1597873E+03
convergence: {deltae: -1.659E-05, res2:  2.536E-01, residm:  1.727E-05, diffor:  5.707E-04, }
etotal    :  -9.15783719E+01
entropy   :   0.00000000E+00
fermie    :  -6.96200763E-02
cartesian_stress_tensor: # hartree/bohr^3
- [  1.08501086E-03,   1.62334637E-08,  -4.07659405E-09, ]
- [  1.62334637E-08,   1.12514550E-03,   3.94420485E-08, ]
- [ -4.07659405E-09,   3.94420485E-08,   1.40743843E-03, ]
pressure_GPa:  -3.5478E+01
xred      :
- [  3.3333E-01,   6.6667E-01,   0.0000E+00, Mo]
- [  6.6667E-01,   3.3333E-01,  -9.1944E-02,  S]
- [  6.6667E-01,   3.3333E-01,   9.1944E-02,  S]
cartesian_forces: # hartree/bohr
- [  3.05344694E-06,   8.41961531E-03,   7.91830123E-05, ]
- [ -3.41554603E-06,  -4.21644923E-03,   6.39372052E-02, ]
- [  3.62099091E-07,  -4.20316608E-03,  -6.40163882E-02, ]
force_length_stats: {min:   8.41998820E-03, max:   6.41542249E-02, mean:   4.55500993E-02, }
...

 Integrated electronic density in atomic spheres:
 Atom  Sphere_radius  Integrated_density
    1        2.00000         10.25271708
    2        2.00000          3.78850553
    3        2.00000          3.78846192

---OUTPUT-----------------------------------------------------------------------

 Cartesian coordinates (xcart) [bohr]
  2.97631865929489E+00  1.71837837912920E+00  0.00000000000000E+00
[...]
 R(2)=  2.9763187  5.1551351  0.0000000  G(2)=  0.1679928  0.0969907  0.0000000
 R(3)=  0.0000000  0.0000000 37.7945227  G(3)=  0.0000000  0.0000000  0.0264589
 Unit cell volume ucvol=  1.1597873E+03 bohr^3
 Angles (23,13,12)=  9.00000000E+01  9.00000000E+01  1.20000000E+02 degrees

 getcut: wavevector=  0.0000  0.0000  0.0000  ngfft=  30  30 180
         ecut(hartree)=     25.000   => boxcut(ratio)=   2.11597

--- Pseudopotential description ------------------------------------------------
- pspini: atom type   1  psp file is ./persudo/Mo.psp8
- pspatm: opening atomic psp file    ./persudo/Mo.psp8
- Mo    ONCVPSP-3.2.3.1  r_core=   1.45541   1.45541   1.35488
- 42.00000  14.00000    170510                znucl, zion, pspdat
    8   11    2    4       600   0.00000      pspcod,pspxc,lmax,lloc,mmax,r2well
    5.99000000000000    3.00000000000000    0.00000000000000   rchrg,fchrg,qchrg
     nproj     2     2     2
     extension_switch     1
  pspatm : epsatm=   15.95693586
         --- l  ekb(1:nproj) -->
             0   13.833287    1.350687
             1    8.015347    1.134034
             2    2.765699    0.969071
 pspatm: atomic psp has been read  and splines computed

- pspini: atom type   2  psp file is ./persudo/S.psp8
- pspatm: opening atomic psp file    ./persudo/S.psp8
- S     ONCVPSP-4.0.1  r_core=   1.45687   1.45687   1.45687
- 16.00000   6.00000    220131                znucl, zion, pspdat
    8   11    2    4       600   0.00000      pspcod,pspxc,lmax,lloc,mmax,r2well
    5.99000000000000    6.00000000000000    0.00000000000000   rchrg,fchrg,qchrg
     nproj     2     2     2
     extension_switch     1
  pspatm : epsatm=    9.04179351
         --- l  ekb(1:nproj) -->
             0    6.774234    0.542270
             1    3.022426    0.737017
             2   -5.033160   -1.531047
 pspatm: atomic psp has been read  and splines computed

_setup2: Arith. and geom. avg. npw (full set) are    6921.778    6921.763

=== [ionmov= 2] Broyden-Fletcher-Goldfard-Shanno method (forces)

[...]

 scprqt:  WARNING -
  nstep=   10 was not enough SCF cycles to converge;
  maximum force difference=  1.408E-04 exceeds toldff=  5.000E-05

[...]

--- Iteration: ( 8/10) Internal Cycle: (1/1)

---SELF-CONSISTENT-FIELD CONVERGENCE--------------------------------------------

--- !BeginCycle
iteration_state: {dtset: 41, itime: 8, icycle: 1, }
solver: {iscf: 7, nstep: 10, nline: 4, wfoptalg: 0, }
tolerances: {toldff: 5.00E-05, }
...

     iter   Etot(hartree)      deltaE(h)  residm     vres2    diffor    maxfor
 ETOT  1  -92.364879483958    -9.236E+01 1.443E-06 8.007E+00 2.185E-03 2.950E-03
 ETOT  2  -92.364804306707     7.518E-05 1.877E-07 1.453E+00 5.578E-03 2.630E-03
 ETOT  3  -92.364434420364     3.699E-04 5.691E-06 6.719E+00 7.216E-03 4.644E-03
 ETOT  4  -92.364966820101    -5.324E-04 2.865E-06 8.109E-02 4.564E-03 8.255E-05
 ETOT  5  -92.364967839876    -1.020E-06 3.951E-08 5.871E-02 8.010E-05 1.626E-04
 ETOT  6  -92.364968120138    -2.803E-07 1.532E-08 4.078E-02 1.137E-04 1.196E-04
 ETOT  7  -92.364968123129    -2.991E-09 6.890E-09 3.917E-02 1.399E-05 1.198E-04
 ETOT  8  -92.364968164448    -4.132E-08 4.298E-09 2.962E-02 2.025E-05 1.401E-04

 At SCF step    8, forces are converged :
  for the second time, max diff in force=  2.025E-05 < toldff=  5.000E-05

[...]

--- !ResultsGS
iteration_state: {dtset: 41, itime: 8, icycle: 1, }
comment   : Summary of ground state results
lattice_vectors:
- [  2.9763187,  -5.1551351,   0.0000000, ]
- [  2.9763187,   5.1551351,   0.0000000, ]
- [  0.0000000,   0.0000000,  37.7945227, ]
lattice_lengths: [   5.95264,    5.95264,   37.79452, ]
lattice_angles: [ 90.000,  90.000, 120.000, ] # degrees, (23, 13, 12)
lattice_volume:   1.1597873E+03
convergence: {deltae: -4.132E-08, res2:  2.962E-02, residm:  4.298E-09, diffor:  2.025E-05, }
etotal    :  -9.23649682E+01
entropy   :   0.00000000E+00
fermie    :  -7.40641273E-02
cartesian_stress_tensor: # hartree/bohr^3
- [  2.99001261E-05,  -3.13596381E-10,  -1.29200845E-09, ]
- [ -3.13596381E-10,   8.07488153E-05,   1.66800703E-08, ]
- [ -1.29200845E-09,   1.66800703E-08,   8.26348624E-05, ]
pressure_GPa:  -1.8955E+00
xred      :
- [  3.3084E-01,   6.6916E-01,  -4.1088E-06, Mo]
- [  6.6792E-01,   3.3209E-01,  -7.8938E-02,  S]
- [  6.6791E-01,   3.3209E-01,   7.8943E-02,  S]
cartesian_forces: # hartree/bohr
- [ -5.59396325E-07,   1.40053194E-04,   6.87308741E-05, ]
- [  3.11443646E-07,  -6.67709184E-05,  -1.95410090E-05, ]
- [  2.47952679E-07,  -7.32822760E-05,  -4.91898651E-05, ]
force_length_stats: {min:   6.95722903E-05, max:   1.56010074E-04, mean:   1.04614440E-04, }
...

 Integrated electronic density in atomic spheres:
 Atom  Sphere_radius  Integrated_density
    1        2.00000         10.49822685
    2        2.00000          3.93591504
    3        2.00000          3.93583194

---OUTPUT-----------------------------------------------------------------------

 Cartesian coordinates (xcart) [bohr]
  2.97631965228451E+00  1.74406275100676E+00 -1.55290614015381E-04
  2.97632082267274E+00 -1.73124841882448E+00 -2.98344140480356E+00
  2.97631550292742E+00 -1.73119271131149E+00  2.98359669541758E+00
 Reduced coordinates (xred)
  3.30842355765857E-01  6.69157977864287E-01 -4.10881268224433E-06
  6.67915303844212E-01  3.32085423019439E-01 -7.89384597292889E-02
  6.67909007056598E-01  3.32089932449608E-01  7.89425685419712E-02
 Cartesian forces (fcart) [Ha/bohr]; max,rms= 1.40053E-04 6.40915E-05 (free atoms)
 -5.59396324854625E-07  1.40053194443449E-04  6.87308741036228E-05
  3.11443645517146E-07 -6.67709184283868E-05 -1.95410090435016E-05
  2.47952679337479E-07 -7.32822760150619E-05 -4.91898650601212E-05
 Gradient of E wrt nuclear positions in reduced coordinates (gred)
  7.23658085498407E-04 -7.20328202059195E-04 -2.59765057859378E-03
 -3.45140063279290E-04  3.43286152212347E-04  7.38543109049194E-04
 -3.78518022219117E-04  3.77042049846848E-04  1.85910746954459E-03
 Total energy (etotal) [Ha]= -9.23649681644479E+01

 Difference of energy with previous step (new-old):
           Absolute (Ha)=-6.48091E-06
           Relative     =-7.01663E-08

 At Broyd/MD step   8, gradients are converged :
  max grad (force/stress) = 1.4005E-04 < tolmxf= 5.0000E-04 ha/bohr (free atoms)

 ----iterations are completed or convergence reached----

 Mean square residual over all n,k,spin=   26.205E-11; max=  42.976E-10
 reduced coordinates (array xred) for    3 atoms
       0.330842355766      0.669157977864     -0.000004108813
       0.667915303844      0.332085423019     -0.078938459729
       0.667909007057      0.332089932450      0.078942568542
 rms dE/dt=  1.1698E-03; max dE/dt=  1.8481E-03; dE/dt below (all hartree)
    1       0.000727643372     -0.000725431753     -0.002608660526
    2      -0.000341154777      0.000338182601      0.000727533162
    3      -0.000374532736      0.000371938498      0.001848097522

 cartesian coordinates (angstrom) at end:
    1      1.57500052546748     0.92291825818355    -0.00008217625364
    2      1.57500114481025    -0.91613720564939    -1.57876919458578
    3      1.57499832972227    -0.91610772650317     1.57885137083942

 cartesian forces (hartree/bohr) at end:
    1     -0.00000055939632     0.00014005319444     0.00006873087410
    2      0.00000031144365    -0.00006677091843    -0.00001954100904
    3      0.00000024795268    -0.00007328227602    -0.00004918986506
 frms,max,avg= 6.4091465E-05 1.4005319E-04   1.879E-07  8.815E-07  2.913E-07 h/b

 cartesian forces (eV/Angstrom) at end:
    1     -0.00002876531317     0.00720182421494     0.00353428335141
    2      0.00001601507482    -0.00343349838683    -0.00100483900187
    3      0.00001275023835    -0.00376832582812    -0.00252944434954
 frms,max,avg= 3.2957154E-03 7.2018242E-03   9.660E-06  4.533E-05  1.498E-05 e/A
 length scales=  5.952637318590  5.952637318590 37.794522657713 bohr
              =  3.150000000000  3.150000000000 20.000000000000 angstroms
 prteigrs : about to open file mos2_ecuto_DS41_EIG
 Fermi (or HOMO) energy (hartree) =  -0.07406   Average Vxc (hartree)=  -0.14486
 Eigenvalues (hartree) for nkpt=   5  k points:
 kpt#   1, nband= 14, wtk=  0.22222, kpt=  0.1667  0.1667  0.5000 (reduced coord)
  -2.29845   -1.34677   -1.34574   -1.34390   -0.54001   -0.51674   -0.24253   -0.20005
  -0.19637   -0.17842   -0.13040   -0.09933   -0.09280    0.00852
 prteigrs : prtvol=0 or 1, do not print more k-points.

--- !EnergyTerms
iteration_state     : {dtset: 41, itime: 8, icycle: 1, }
comment             : Components of total free energy in Hartree
kinetic             :  2.99507897056804E+01
hartree             :  2.83704482643840E+02
xc                  : -1.66133667012393E+01
Ewald energy        :  2.07465650459571E+02
psp_core            :  7.63117176066322E-01
local_psp           : -6.09261094068354E+02
non_local_psp       :  1.16254526199873E+01
total_energy        : -9.23649681644479E+01
total_energy_eV     : -2.51337860393947E+03
band_energy         : -1.70938319510140E+01
...

 rms coord change=  6.2965E-03   atom, delta coord (reduced):
     1       -0.002490977567      0.002491311198     -0.000004108813
     2        0.001248637178     -0.001247910314      0.013005775271
     3        0.001242340390     -0.001243400884     -0.013001666458

 Cartesian components of stress tensor (hartree/bohr^3)
  sigma(1 1)=  2.99001261E-05  sigma(3 2)=  1.66800703E-08
  sigma(2 2)=  8.07488153E-05  sigma(3 1)= -1.29200845E-09
  sigma(3 3)=  8.26348624E-05  sigma(2 1)= -3.13596381E-10

-Cartesian components of stress tensor (GPa)         [Pressure= -1.8955E+00 GPa]
- sigma(1 1)=  8.79691934E-01  sigma(3 2)=  4.90744528E-04
- sigma(2 2)=  2.37571177E+00  sigma(3 1)= -3.80121946E-05
- sigma(3 3)=  2.43120118E+00  sigma(2 1)= -9.22632252E-06

== END DATASET(S) ==============================================================

 -outvars: echo values of variables after computation  --------
            acell      5.9526373186E+00  5.9526373186E+00  3.7794522658E+01 Bohr
              amu      9.59400000E+01  3.20660000E+01
      chksymbreak           0
             ecut11    1.00000000E+01 Hartree
             ecut21    1.50000000E+01 Hartree
             ecut31    2.00000000E+01 Hartree
             ecut41    2.50000000E+01 Hartree
           etotal11   -9.1610699442E+01
           etotal21   -9.2121835416E+01
           etotal31   -9.2305481420E+01
           etotal41   -9.2364968164E+01
            fcart11   -1.1933717414E-07  3.7420529669E-05 -6.9401179982E-06
                      -1.4559515608E-07 -1.8972018909E-05  2.8435756817E-05
                       2.6493233022E-07 -1.8448510760E-05 -2.1495638819E-05
            fcart21   -2.7906210141E-07 -4.7544968469E-04  5.4566628327E-07
                      -1.5541936927E-07  2.3790168916E-04  3.1105907182E-04
                       4.3448147068E-07  2.3754799553E-04 -3.1160473810E-04
            fcart31   -1.3968679778E-06  9.0738396191E-05 -1.9159040718E-04
                       7.8083995243E-07 -5.3786018307E-05  1.1462088580E-05
                       6.1602802541E-07 -3.6952377884E-05  1.8012831860E-04
            fcart41   -5.5939632485E-07  1.4005319444E-04  6.8730874104E-05
                       3.1144364552E-07 -6.6770918428E-05 -1.9541009044E-05
                       2.4795267934E-07 -7.3282276015E-05 -4.9189865060E-05
-          fftalg         512
           ionmov           2
           istwfk        0    0    0    0    9
              ixc          11
           jdtset       11   21   31   41
              kpt      1.66666667E-01  1.66666667E-01  5.00000000E-01
                       5.00000000E-01  1.66666667E-01  5.00000000E-01
                      -1.66666667E-01  1.66666667E-01  5.00000000E-01
                       1.66666667E-01  5.00000000E-01  5.00000000E-01
                       5.00000000E-01  5.00000000E-01  5.00000000E-01
         kptrlatt        3    0    0      0    3    0      0    0    1
          kptrlen      1.78579120E+01
P           mkmem           5
            natom           3
            nband          14
           ndtset           4
            ngfft11        18      18     108
            ngfft21        24      24     135
            ngfft31        24      24     160
            ngfft41        30      30     180
             nkpt           5
            nstep          10
             nsym           1
            ntime          10
           ntypat           2
              occ      2.000000  2.000000  2.000000  2.000000  2.000000  2.000000
                       2.000000  2.000000  2.000000  2.000000  2.000000  2.000000
                       2.000000  0.000000
        optforces           1
            rprim      5.0000000000E-01 -8.6602540378E-01  0.0000000000E+00
                       5.0000000000E-01  8.6602540378E-01  0.0000000000E+00
                       0.0000000000E+00  0.0000000000E+00  1.0000000000E+00
           shiftk      5.00000000E-01  5.00000000E-01  5.00000000E-01
          spgroup           1
           strten11    9.8025300529E-04  1.0279197424E-03  1.0321172102E-03
                      -1.5589994026E-09 -1.0664318082E-09 -1.3030974880E-10
           strten21    4.4220900667E-04  4.9609180696E-04  4.9357114302E-04
                       9.2507471461E-10 -1.6133447031E-09 -1.7425988300E-10
           strten31    1.8336836767E-04  2.3301243533E-04  2.3621307673E-04
                      -4.3712497362E-08  6.4626147068E-10 -9.4270880663E-10
           strten41    2.9900126119E-05  8.0748815264E-05  8.2634862356E-05
                       1.6680070286E-08 -1.2920084518E-09 -3.1359638109E-10
           toldff      5.00000000E-05
           tolmxf      5.00000000E-04
            typat      1  2  2
              wtk        0.22222    0.22222    0.22222    0.22222    0.11111
           xangst11    1.5750001702E+00  9.2415022863E-01  7.7606235189E-06
                       1.5750009911E+00 -9.1673726246E-01 -1.5965546592E+00
                       1.5749988387E+00 -9.1673964014E-01  1.5965468986E+00
           xangst21    1.5750004695E+00  9.2348359503E-01 -7.4442874567E-07
                       1.5750013948E+00 -9.1640618265E-01 -1.5818234239E+00
                       1.5749981357E+00 -9.1640408636E-01  1.5818241683E+00
           xangst31    1.5750025309E+00  9.2286537678E-01  1.9233965357E-04
                       1.5749980685E+00 -9.1605427145E-01 -1.5797568791E+00
                       1.5749994006E+00 -9.1613777931E-01  1.5795645395E+00
           xangst41    1.5750005255E+00  9.2291825818E-01 -8.2176253645E-05
                       1.5750011448E+00 -9.1613720565E-01 -1.5787691946E+00
                       1.5749983297E+00 -9.1610772650E-01  1.5788513708E+00
            xcart11    2.9763189809E+00  1.7463908378E+00  1.4665453071E-05
                       2.9763205322E+00 -1.7323823619E+00 -3.0170510621E+00
                       2.9763164647E+00 -1.7323868550E+00  3.0170363966E+00
            xcart21    2.9763195464E+00  1.7451310828E+00 -1.4067664548E-06
                       2.9763212951E+00 -1.7317567117E+00 -2.9892130617E+00
                       2.9763151364E+00 -1.7317527503E+00  2.9892144684E+00
            xcart31    2.9763234421E+00  1.7439628196E+00  3.6346926975E-04
                       2.9763150092E+00 -1.7310916959E+00 -2.9853078581E+00
                       2.9763175266E+00 -1.7312495029E+00  2.9849443888E+00
            xcart41    2.9763196523E+00  1.7440627510E+00 -1.5529061402E-04
                       2.9763208227E+00 -1.7312484188E+00 -2.9834414048E+00
                       2.9763155029E+00 -1.7311927113E+00  2.9835966954E+00
             xred11    3.3061644030E-01  6.6938366777E-01  3.8803117594E-07
                       6.6802523694E-01  3.3197539233E-01 -7.9827732960E-02
                       6.6802498943E-01  3.3197427323E-01  7.9827344929E-02
             xred21    3.3073871977E-01  6.6926157830E-01 -3.7221437283E-08
                       6.6796468287E-01  3.3203620272E-01 -7.9091171193E-02
                       6.6796326403E-01  3.3203555232E-01  7.9091208415E-02
             xred31    3.3085268483E-01  6.6914892211E-01  9.6169826787E-06
                       6.6789912657E-01  3.3209964706E-01 -7.8987843956E-02
                       6.6791485527E-01  3.3208476416E-01  7.8978226973E-02
             xred41    3.3084235577E-01  6.6915797786E-01 -4.1088126822E-06
                       6.6791530384E-01  3.3208542302E-01 -7.8938459729E-02
                       6.6790900706E-01  3.3208993245E-01  7.8942568542E-02
            znucl       42.00000   16.00000

- Timing analysis has been suppressed with timopt=0

 Suggested references for the acknowledgment of ABINIT usage.

 Calculation completed.
.Delivered  19 WARNINGs and  14 COMMENTs to log file.