.Version 9.10.3 of ABINIT

 ABINIT is a project of the Universite Catholique de Louvain,
 Corning Inc. and other collaborators, see ~abinit/doc/developers/contributors.txt .
 acknowledgments of the ABINIT effort.

.Starting date : Wed  6 May 2025.
- ( at 07h24 )

- input  file    -> mos2_ecut2.abi
- output file    -> mos2_ecut2.abo
- root for input  files -> mos2_ecut2i
- root for output files -> mos2_ecut2o

 DATASET   11 : space group P1 (#  1); Bravais aP (primitive triclinic)
     intxc =       0    ionmov =       2      iscf =       7    lmnmax =       6
     lnmax =       6     mgfft =     192  mpssoang =       3    mqgrid =    9319
     natom =       3  nloc_mem =       1    nspden =       1   nspinor =       1
    nsppol =       1      nsym =       1    n1xccc =    2501    ntypat =       2
    occopt =       1   xclevel =       2
-    mband =          14        mffmem =           1         mkmem =           5
       mpw =        9124          nfft =      172800          nkpt =           5
  Rough estimation (10% accuracy) of disk space for files :

 DATASET   21 : space group P1 (#  1); Bravais aP (primitive triclinic)
     intxc =       0    ionmov =       2      iscf =       7    lmnmax =       6
     lnmax =       6     mgfft =     216  mpssoang =       3    mqgrid =   10066
     natom =       3  nloc_mem =       1    nspden =       1   nspinor =       1
    nsppol =       1      nsym =       1    n1xccc =    2501    ntypat =       2
    occopt =       1   xclevel =       2
-    mband =          14        mffmem =           1         mkmem =           5
       mpw =       11496          nfft =      221184          nkpt =           5
  Rough estimation (10% accuracy) of disk space for files :

------------- Echo of variables that govern the present computation ------------
-
- outvars: echo of selected default values
-   iomode0 =  0 , fftalg0 =512 , wfoptalg0 =  0
-
- outvars: echo of global parameters not present in the input file
-  max_nthreads =    0
-
 -outvars: echo values of preprocessed input variables --------
            acell      5.9526373186E+00  5.9526373186E+00  3.7794522658E+01 Bohr
              amu      9.59400000E+01  3.20660000E+01
      chksymbreak           0
             ecut11    3.00000000E+01 Hartree
             ecut21    3.50000000E+01 Hartree
-          fftalg         512
           ionmov           2
           istwfk        0    0    0    0    9
              ixc          11
           jdtset       11   21
              kpt      1.66666667E-01  1.66666667E-01  5.00000000E-01
                       5.00000000E-01  1.66666667E-01  5.00000000E-01
                      -1.66666667E-01  1.66666667E-01  5.00000000E-01
                       1.66666667E-01  5.00000000E-01  5.00000000E-01
                       5.00000000E-01  5.00000000E-01  5.00000000E-01
         kptrlatt        3    0    0      0    3    0      0    0    1
          kptrlen      1.78579120E+01
P           mkmem           5
            natom           3
            nband          14
           ndtset           2
            ngfft11        30      30     192
            ngfft21        32      32     216
             nkpt           5
            nstep          10
             nsym           1
            ntime          10
           ntypat           2
              occ      2.000000  2.000000  2.000000  2.000000  2.000000  2.000000
                       2.000000  2.000000  2.000000  2.000000  2.000000  2.000000
                       2.000000  0.000000
        optforces           1
            rprim      5.0000000000E-01 -8.6602540378E-01  0.0000000000E+00
                       5.0000000000E-01  8.6602540378E-01  0.0000000000E+00
                       0.0000000000E+00  0.0000000000E+00  1.0000000000E+00
           shiftk      5.00000000E-01  5.00000000E-01  5.00000000E-01
          spgroup           1
           toldff      5.00000000E-05
           tolmxf      5.00000000E-04
            typat      1  2  2
              wtk        0.22222    0.22222    0.22222    0.22222    0.11111
           xangst      1.5750000000E+00  9.0932667397E-01  0.0000000000E+00
                       1.5750000000E+00 -9.0932667397E-01 -1.8388847000E+00
                       1.5750000000E+00 -9.0932667397E-01  1.8388847000E+00
            xcart      2.9763186593E+00  1.7183783791E+00  0.0000000000E+00
                       2.9763186593E+00 -1.7183783791E+00 -3.4749884730E+00
                       2.9763186593E+00 -1.7183783791E+00  3.4749884730E+00
             xred      3.3333333333E-01  6.6666666667E-01  0.0000000000E+00
                       6.6666666667E-01  3.3333333333E-01 -9.1944235000E-02
                       6.6666666667E-01  3.3333333333E-01  9.1944235000E-02
            znucl       42.00000   16.00000

 chkinp: Checking input parameters for consistency, jdtset=  11.

 chkinp: Checking input parameters for consistency, jdtset=  21.

== DATASET 11 ==================================================================
-   mpi_nproc: 1, omp_nthreads: -1 (-1 if OMP is not activated)

--- !DatasetInfo
iteration_state: {dtset: 11, }
dimensions: {natom: 3, nkpt: 5, mband: 14, nsppol: 1, nspinor: 1, nspden: 1, mpw: 9124, }
cutoff_energies: {ecut:  30.0, pawecutdg:  -1.0, }
electrons: {nelect:   2.60000000E+01, charge:   0.00000000E+00, occopt:   1.00000000E+00, tsmear:   1.00000000E-02, }
meta: {optdriver: 0, ionmov: 2, optcell: 0, iscf: 7, paral_kgb: 0, }
...

 Real(R)+Recip(G) space primitive vectors, cartesian coordinates (Bohr,Bohr^-1):
 R(1)=  2.9763187 -5.1551351  0.0000000  G(1)=  0.1679928 -0.0969907  0.0000000
 R(2)=  2.9763187  5.1551351  0.0000000  G(2)=  0.1679928  0.0969907  0.0000000
 R(3)=  0.0000000  0.0000000 37.7945227  G(3)=  0.0000000  0.0000000  0.0264589
 Unit cell volume ucvol=  1.1597873E+03 bohr^3
 Angles (23,13,12)=  9.00000000E+01  9.00000000E+01  1.20000000E+02 degrees

 getcut: wavevector=  0.0000  0.0000  0.0000  ngfft=  30  30 192
         ecut(hartree)=     30.000   => boxcut(ratio)=   2.04554

--- Pseudopotential description ------------------------------------------------
- pspini: atom type   1  psp file is ./persudo/Mo.psp8
- pspatm: opening atomic psp file    ./persudo/Mo.psp8
- Mo    ONCVPSP-3.2.3.1  r_core=   1.45541   1.45541   1.35488
- 42.00000  14.00000    170510                znucl, zion, pspdat
    8   11    2    4       600   0.00000      pspcod,pspxc,lmax,lloc,mmax,r2well
    5.99000000000000    3.00000000000000    0.00000000000000   rchrg,fchrg,qchrg
     nproj     2     2     2
     extension_switch     1
  pspatm : epsatm=   15.95693586
         --- l  ekb(1:nproj) -->
             0   13.833287    1.350687
             1    8.015347    1.134034
             2    2.765699    0.969071
 pspatm: atomic psp has been read  and splines computed

- pspini: atom type   2  psp file is ./persudo/S.psp8
- pspatm: opening atomic psp file    ./persudo/S.psp8
- S     ONCVPSP-4.0.1  r_core=   1.45687   1.45687   1.45687
- 16.00000   6.00000    220131                znucl, zion, pspdat
    8   11    2    4       600   0.00000      pspcod,pspxc,lmax,lloc,mmax,r2well
    5.99000000000000    6.00000000000000    0.00000000000000   rchrg,fchrg,qchrg
     nproj     2     2     2
     extension_switch     1
  pspatm : epsatm=    9.04179351
         --- l  ekb(1:nproj) -->
             0    6.774234    0.542270
             1    3.022426    0.737017
             2   -5.033160   -1.531047
 pspatm: atomic psp has been read  and splines computed

   8.85053595E+02                                ecore*ucvol(ha*bohr**3)

_setup2: Arith. and geom. avg. npw (full set) are    9098.667    9098.641

=== [ionmov= 2] Broyden-Fletcher-Goldfard-Shanno method (forces)

--- Iteration: ( 1/10) Internal Cycle: (1/1)

---SELF-CONSISTENT-FIELD CONVERGENCE--------------------------------------------

--- !BeginCycle
iteration_state: {dtset: 11, itime: 1, icycle: 1, }
solver: {iscf: 7, nstep: 10, nline: 4, wfoptalg: 0, }
tolerances: {toldff: 5.00E-05, }
...

     iter   Etot(hartree)      deltaE(h)  residm     vres2    diffor    maxfor
 ETOT  1  -91.417367026966    -9.142E+01 7.667E-02 1.123E+04 7.762E-02 7.762E-02
 ETOT  2  -86.027690547965     5.390E+00 5.698E-02 1.005E+05 1.138E+00 1.066E+00
 ETOT  3  -92.226935040722    -6.199E+00 5.224E-02 2.271E+03 9.054E-01 1.607E-01
 ETOT  4  -92.315491120660    -8.856E-02 5.484E-03 8.749E+02 4.135E-02 1.194E-01
 ETOT  5  -92.328444985902    -1.295E-02 5.396E-04 5.608E+02 1.114E-02 1.094E-01
 ETOT  6  -92.331868621250    -3.424E-03 3.447E-04 4.315E+02 8.505E-03 1.009E-01
 ETOT  7  -92.338672313463    -6.804E-03 1.705E-04 1.998E+02 1.530E-02 8.560E-02
 ETOT  8  -92.341368003883    -2.696E-03 1.011E-04 1.045E+02 8.744E-03 7.685E-02
 ETOT  9  -92.342099091907    -7.311E-04 4.910E-05 7.660E+01 2.464E-03 7.441E-02
 ETOT 10  -92.342754385408    -6.553E-04 2.966E-05 4.456E+01 4.458E-03 6.996E-02

 Cartesian components of stress tensor (hartree/bohr^3)
  sigma(1 1)=  7.03918503E-05  sigma(3 2)=  3.96337072E-09
  sigma(2 2)=  1.09429859E-04  sigma(3 1)= -4.00178810E-07
  sigma(3 3)=  3.67570593E-04  sigma(2 1)= -1.70654988E-07

 scprqt:  WARNING -
  nstep=   10 was not enough SCF cycles to converge;
  maximum force difference=  4.458E-03 exceeds toldff=  5.000E-05

--- !ResultsGS
iteration_state: {dtset: 11, itime: 1, icycle: 1, }
comment   : Summary of ground state results
lattice_vectors:
- [  2.9763187,  -5.1551351,   0.0000000, ]
- [  2.9763187,   5.1551351,   0.0000000, ]
- [  0.0000000,   0.0000000,  37.7945227, ]
lattice_lengths: [   5.95264,    5.95264,   37.79452, ]
lattice_angles: [ 90.000,  90.000, 120.000, ] # degrees, (23, 13, 12)
lattice_volume:   1.1597873E+03
convergence: {deltae: -6.553E-04, res2:  4.456E+01, residm:  2.966E-05, diffor:  4.458E-03, }
etotal    :  -9.23427544E+01
entropy   :   0.00000000E+00
fermie    :  -7.87016367E-02
cartesian_stress_tensor: # hartree/bohr^3
- [  7.03918503E-05,  -1.70654988E-07,  -4.00178810E-07, ]
- [ -1.70654988E-07,   1.09429859E-04,   3.96337072E-09, ]
- [ -4.00178810E-07,   3.96337072E-09,   3.67570593E-04, ]
pressure_GPa:  -5.3683E+00
xred      :
- [  3.3333E-01,   6.6667E-01,   0.0000E+00, Mo]
- [  6.6667E-01,   3.3333E-01,  -9.1944E-02,  S]
- [  6.6667E-01,   3.3333E-01,   9.1944E-02,  S]
cartesian_forces: # hartree/bohr
- [  5.23377403E-06,   7.92365761E-03,   6.92712714E-04, ]
- [ -2.86417021E-05,  -3.94853270E-03,   6.92637669E-02, ]
- [  2.34079280E-05,  -3.97512490E-03,  -6.99564796E-02, ]
force_length_stats: {min:   7.95388133E-03, max:   7.00693314E-02, mean:   4.91331472E-02, }
...

 Integrated electronic density in atomic spheres:
 Atom  Sphere_radius  Integrated_density
    1        2.00000         10.43238518
    2        2.00000          3.79408872
    3        2.00000          3.79224264

---OUTPUT-----------------------------------------------------------------------

 Cartesian coordinates (xcart) [bohr]
  2.97631865929489E+00  1.71837837912920E+00  0.00000000000000E+00
  2.97631865929489E+00 -1.71837837912920E+00 -3.47498847295358E+00
  2.97631865929489E+00 -1.71837837912920E+00  3.47498847295358E+00
 Reduced coordinates (xred)
[...]
              =  3.150000000000  3.150000000000 20.000000000000 angstroms
 prteigrs : about to open file mos2_ecut2o_DS11_EIG
 Fermi (or HOMO) energy (hartree) =  -0.07380   Average Vxc (hartree)=  -0.14416
 Eigenvalues (hartree) for nkpt=   5  k points:
 kpt#   1, nband= 14, wtk=  0.22222, kpt=  0.1667  0.1667  0.5000 (reduced coord)
  -2.29784   -1.34720   -1.34609   -1.34416   -0.53983   -0.51658   -0.24227   -0.19991
  -0.19611   -0.17814   -0.13020   -0.09923   -0.09251    0.00876
 prteigrs : prtvol=0 or 1, do not print more k-points.

--- !EnergyTerms
iteration_state     : {dtset: 11, itime: 6, icycle: 1, }
comment             : Components of total free energy in Hartree
kinetic             :  2.99824182238637E+01
hartree             :  2.83679898797511E+02
xc                  : -1.66145875263179E+01
Ewald energy        :  2.07434677506997E+02
psp_core            :  7.63117176066322E-01
local_psp           : -6.09240697763241E+02
non_local_psp       :  1.16152215140067E+01
total_energy        : -9.23799520711133E+01
total_energy_eV     : -2.51378633677547E+03
band_energy         : -1.70909119327515E+01
...

 rms coord change=  6.2949E-03   atom, delta coord (reduced):
     1       -0.002556203437      0.002555600963      0.000022676550
     2        0.001267921496     -0.001270900468      0.012970013715
     3        0.001288281941     -0.001284700494     -0.012992690265

[...]

-Cartesian components of stress tensor (GPa)         [Pressure= -7.9373E-02 GPa]
- sigma(1 1)= -9.46691988E-01  sigma(3 2)= -1.72835975E-03
- sigma(2 2)=  5.66338943E-01  sigma(3 1)=  1.47979064E-04
- sigma(3 3)=  6.18472358E-01  sigma(2 1)=  1.81010947E-05

== DATASET 21 ==================================================================
-   mpi_nproc: 1, omp_nthreads: -1 (-1 if OMP is not activated)

--- !DatasetInfo
iteration_state: {dtset: 21, }
dimensions: {natom: 3, nkpt: 5, mband: 14, nsppol: 1, nspinor: 1, nspden: 1, mpw: 11496, }
cutoff_energies: {ecut:  35.0, pawecutdg:  -1.0, }
electrons: {nelect:   2.60000000E+01, charge:   0.00000000E+00, occopt:   1.00000000E+00, tsmear:   1.00000000E-02, }
meta: {optdriver: 0, ionmov: 2, optcell: 0, iscf: 7, paral_kgb: 0, }
...

 Real(R)+Recip(G) space primitive vectors, cartesian coordinates (Bohr,Bohr^-1):
 R(1)=  2.9763187 -5.1551351  0.0000000  G(1)=  0.1679928 -0.0969907  0.0000000
 R(2)=  2.9763187  5.1551351  0.0000000  G(2)=  0.1679928  0.0969907  0.0000000
 R(3)=  0.0000000  0.0000000 37.7945227  G(3)=  0.0000000  0.0000000  0.0264589
 Unit cell volume ucvol=  1.1597873E+03 bohr^3
 Angles (23,13,12)=  9.00000000E+01  9.00000000E+01  1.20000000E+02 degrees

 getcut: wavevector=  0.0000  0.0000  0.0000  ngfft=  32  32 216
         ecut(hartree)=     35.000   => boxcut(ratio)=   2.01856

--- Pseudopotential description ------------------------------------------------
- pspini: atom type   1  psp file is ./persudo/Mo.psp8
- pspatm: opening atomic psp file    ./persudo/Mo.psp8
- Mo    ONCVPSP-3.2.3.1  r_core=   1.45541   1.45541   1.35488
- 42.00000  14.00000    170510                znucl, zion, pspdat
    8   11    2    4       600   0.00000      pspcod,pspxc,lmax,lloc,mmax,r2well
    5.99000000000000    3.00000000000000    0.00000000000000   rchrg,fchrg,qchrg
     nproj     2     2     2
     extension_switch     1
  pspatm : epsatm=   15.95693586
         --- l  ekb(1:nproj) -->
             0   13.833287    1.350687
             1    8.015347    1.134034
             2    2.765699    0.969071
 pspatm: atomic psp has been read  and splines computed

- pspini: atom type   2  psp file is ./persudo/S.psp8
- pspatm: opening atomic psp file    ./persudo/S.psp8
- S     ONCVPSP-4.0.1  r_core=   1.45687   1.45687   1.45687
- 16.00000   6.00000    220131                znucl, zion, pspdat
    8   11    2    4       600   0.00000      pspcod,pspxc,lmax,lloc,mmax,r2well
    5.99000000000000    6.00000000000000    0.00000000000000   rchrg,fchrg,qchrg
     nproj     2     2     2
     extension_switch     1
  pspatm : epsatm=    9.04179351
         --- l  ekb(1:nproj) -->
             0    6.774234    0.542270
             1    3.022426    0.737017
             2   -5.033160   -1.531047
 pspatm: atomic psp has been read  and splines computed

_setup2: Arith. and geom. avg. npw (full set) are   11467.111   11467.069

=== [ionmov= 2] Broyden-Fletcher-Goldfard-Shanno method (forces)

[...]

 Difference of energy with previous step (new-old):
           Absolute (Ha)= 3.29729E-03
           Relative     = 3.57034E-05

[...]

 scprqt:  WARNING -
  nstep=   10 was not enough SCF cycles to converge;
  maximum force difference=  6.444E-05 exceeds toldff=  5.000E-05

[...]

--- Iteration: ( 9/10) Internal Cycle: (1/1)

---SELF-CONSISTENT-FIELD CONVERGENCE--------------------------------------------

--- !BeginCycle
iteration_state: {dtset: 21, itime: 9, icycle: 1, }
solver: {iscf: 7, nstep: 10, nline: 4, wfoptalg: 0, }
tolerances: {toldff: 5.00E-05, }
...

     iter   Etot(hartree)      deltaE(h)  residm     vres2    diffor    maxfor
 ETOT  1  -92.382553510877    -9.238E+01 8.202E-08 5.037E+00 7.922E-04 2.097E-03
 ETOT  2  -92.382535218971     1.829E-05 1.100E-07 4.358E-01 1.975E-03 7.431E-04
 ETOT  3  -92.382459548129     7.567E-05 1.168E-06 1.706E+00 3.070E-03 2.327E-03
 ETOT  4  -92.382566820151    -1.073E-04 6.061E-07 4.790E-03 2.054E-03 4.870E-04
 ETOT  5  -92.382566988589    -1.684E-07 1.012E-08 2.741E-03 6.321E-05 4.351E-04
 ETOT  6  -92.382567000425    -1.184E-08 2.278E-09 1.552E-03 4.677E-05 3.883E-04
 ETOT  7  -92.382567003096    -2.672E-09 8.472E-10 1.531E-03 9.437E-06 3.978E-04

 At SCF step    7, forces are converged :
  for the second time, max diff in force=  9.437E-06 < toldff=  5.000E-05

[...]

--- !ResultsGS
iteration_state: {dtset: 21, itime: 9, icycle: 1, }
comment   : Summary of ground state results
lattice_vectors:
- [  2.9763187,  -5.1551351,   0.0000000, ]
- [  2.9763187,   5.1551351,   0.0000000, ]
- [  0.0000000,   0.0000000,  37.7945227, ]
lattice_lengths: [   5.95264,    5.95264,   37.79452, ]
lattice_angles: [ 90.000,  90.000, 120.000, ] # degrees, (23, 13, 12)
lattice_volume:   1.1597873E+03
convergence: {deltae: -2.672E-09, res2:  1.531E-03, residm:  8.472E-10, diffor:  9.437E-06, }
etotal    :  -9.23825670E+01
entropy   :   0.00000000E+00
fermie    :  -7.36224424E-02
cartesian_stress_tensor: # hartree/bohr^3
- [ -4.94832277E-05,  -3.12713294E-10,   7.40394447E-09, ]
- [ -3.12713294E-10,   2.55577959E-06,   6.22100282E-09, ]
- [  7.40394447E-09,   6.22100282E-09,   4.45379597E-06, ]
pressure_GPa:   4.1654E-01
xred      :
- [  3.3065E-01,   6.6935E-01,   7.0121E-08, Mo]
- [  6.6801E-01,   3.3199E-01,  -7.8987E-02,  S]
- [  6.6801E-01,   3.3199E-01,   7.8987E-02,  S]
cartesian_forces: # hartree/bohr
- [ -4.06475842E-07,  -3.97786361E-04,  -7.09098739E-07, ]
- [  1.62091219E-06,   2.00100244E-04,   3.15646302E-04, ]
- [ -1.21443635E-06,   1.97686117E-04,  -3.14937203E-04, ]
force_length_stats: {min:   3.71842329E-04, max:   3.97787201E-04, mean:   3.81120383E-04, }
...

 Integrated electronic density in atomic spheres:
 Atom  Sphere_radius  Integrated_density
    1        2.00000         10.51017701
    2        2.00000          3.93841003
    3        2.00000          3.93841133

---OUTPUT-----------------------------------------------------------------------

 Cartesian coordinates (xcart) [bohr]
  2.97631990978758E+00  1.74608883595275E+00  2.65017248145875E-06
  2.97630374926255E+00 -1.73224820997167E+00 -2.98528724566640E+00
  2.97633231883453E+00 -1.73221900511028E+00  2.98528459549391E+00
 Reduced coordinates (xred)
  3.30645887692411E-01  6.69354532455037E-01  7.01205438010187E-08
  6.68009406045942E-01  3.31985584398951E-01 -7.89872985750536E-02
  6.68011372928313E-01  3.31993216479345E-01  7.89872284545098E-02
 Cartesian forces (fcart) [Ha/bohr]; max,rms= 3.97786E-04 2.20146E-04 (free atoms)
 -4.06475842304023E-07 -3.97786360818543E-04 -7.09098739313862E-07
  1.62091218880695E-06  2.00100244282784E-04  3.15646301865900E-04
 -1.21443634650293E-06  1.97686116535759E-04 -3.14937203126586E-04
 Gradient of E wrt nuclear positions in reduced coordinates (gred)
 -2.04943264419522E-03  2.05185224746322E-03  2.68000483695534E-05
  1.02671944910940E-03 -1.03636815149465E-03 -1.19297013076940E-02
  1.02271319508582E-03 -1.01548409596857E-03  1.19029012593245E-02
 Total energy (etotal) [Ha]= -9.23825670030963E+01

 Difference of energy with previous step (new-old):
           Absolute (Ha)=-4.73436E-06
           Relative     =-5.12473E-08

 At Broyd/MD step   9, gradients are converged :
  max grad (force/stress) = 3.9779E-04 < tolmxf= 5.0000E-04 ha/bohr (free atoms)

 ----iterations are completed or convergence reached----

 Mean square residual over all n,k,spin=   43.854E-12; max=  84.720E-11
 reduced coordinates (array xred) for    3 atoms
       0.330645887692      0.669354532455      0.000000070121
       0.668009406046      0.331985584399     -0.078987298575
       0.668011372928      0.331993216479      0.078987228455
 rms dE/dt=  5.7408E-03; max dE/dt=  1.1904E-02; dE/dt below (all hartree)
    1      -0.002053566919      0.002056035268      0.000027767503
    2       0.001022585174     -0.001032185131     -0.011928733853
    3       0.001018578920     -0.001011301076      0.011903868714

 cartesian coordinates (angstrom) at end:
    1      1.57500066173223     0.92399041615964     0.00000140241088
    2      1.57499210995071    -0.91666627233784    -1.57974597150107
    3      1.57500722831706    -0.91665081779080     1.57974456909020

 cartesian forces (hartree/bohr) at end:
    1     -0.00000040647584    -0.00039778636082    -0.00000070909874
    2      0.00000162091219     0.00020010024428     0.00031564630187
    3     -0.00000121443635     0.00019768611654    -0.00031493720313
 frms,max,avg= 2.2014558E-04 3.9778636E-04  -8.189E-09 -8.067E-07 -2.560E-08 h/b

 cartesian forces (eV/Angstrom) at end:
    1     -0.00002090182645    -0.02045499538302    -0.00003646332018
    2      0.00008335064900     0.01028956740629     0.01623118408094
    3     -0.00006244882255     0.01016542797673    -0.01619472076076
 frms,max,avg= 1.1320340E-02 2.0454995E-02  -4.211E-07 -4.148E-05 -1.316E-06 e/A
 length scales=  5.952637318590  5.952637318590 37.794522657713 bohr
              =  3.150000000000  3.150000000000 20.000000000000 angstroms
 prteigrs : about to open file mos2_ecut2o_DS21_EIG
 Fermi (or HOMO) energy (hartree) =  -0.07362   Average Vxc (hartree)=  -0.14380
 Eigenvalues (hartree) for nkpt=   5  k points:
 kpt#   1, nband= 14, wtk=  0.22222, kpt=  0.1667  0.1667  0.5000 (reduced coord)
  -2.29744   -1.34715   -1.34603   -1.34408   -0.53961   -0.51643   -0.24202   -0.19967
  -0.19588   -0.17792   -0.13000   -0.09908   -0.09240    0.00892
 prteigrs : prtvol=0 or 1, do not print more k-points.

--- !EnergyTerms
iteration_state     : {dtset: 21, itime: 9, icycle: 1, }
comment             : Components of total free energy in Hartree
kinetic             :  2.99894583075095E+01
hartree             :  2.83649440502577E+02
xc                  : -1.66144689485815E+01
Ewald energy        :  2.07400974116139E+02
psp_core            :  7.63117176066322E-01
local_psp           : -6.09184912639549E+02
non_local_psp       :  1.16138244827433E+01
total_energy        : -9.23825670030963E+01
total_energy_eV     : -2.51385749269342E+03
band_energy         : -1.70862637544869E+01
...

 rms coord change=  6.3020E-03   atom, delta coord (reduced):
     1       -0.002687445641      0.002687865788      0.000000070121
     2        0.001342739379     -0.001347748934      0.012956936425
     3        0.001344706262     -0.001340116854     -0.012957006545

 Cartesian components of stress tensor (hartree/bohr^3)
  sigma(1 1)= -4.94832277E-05  sigma(3 2)=  6.22100282E-09
  sigma(2 2)=  2.55577959E-06  sigma(3 1)=  7.40394447E-09
  sigma(3 3)=  4.45379597E-06  sigma(2 1)= -3.12713294E-10

-Cartesian components of stress tensor (GPa)         [Pressure=  4.1654E-01 GPa]
- sigma(1 1)= -1.45584658E+00  sigma(3 2)=  1.83028191E-04
- sigma(2 2)=  7.51936190E-02  sigma(3 1)=  2.17831530E-04
- sigma(3 3)=  1.31035179E-01  sigma(2 1)= -9.20034120E-06

== END DATASET(S) ==============================================================

 -outvars: echo values of variables after computation  --------
            acell      5.9526373186E+00  5.9526373186E+00  3.7794522658E+01 Bohr
              amu      9.59400000E+01  3.20660000E+01
      chksymbreak           0
             ecut11    3.00000000E+01 Hartree
             ecut21    3.50000000E+01 Hartree
           etotal11   -9.2379952071E+01
           etotal21   -9.2382567003E+01
            fcart11    4.4367394177E-07 -3.5991997931E-05 -4.9976961799E-04
                       1.1779287797E-06  6.9689314441E-06  3.7451690203E-04
                      -1.6216027214E-06  2.9023066487E-05  1.2525271597E-04
            fcart21   -4.0647584230E-07 -3.9778636082E-04 -7.0909873931E-07
                       1.6209121888E-06  2.0010024428E-04  3.1564630187E-04
                      -1.2144363465E-06  1.9768611654E-04 -3.1493720313E-04
-          fftalg         512
           ionmov           2
           istwfk        0    0    0    0    9
              ixc          11
           jdtset       11   21
              kpt      1.66666667E-01  1.66666667E-01  5.00000000E-01
                       5.00000000E-01  1.66666667E-01  5.00000000E-01
                      -1.66666667E-01  1.66666667E-01  5.00000000E-01
                       1.66666667E-01  5.00000000E-01  5.00000000E-01
                       5.00000000E-01  5.00000000E-01  5.00000000E-01
         kptrlatt        3    0    0      0    3    0      0    0    1
          kptrlen      1.78579120E+01
P           mkmem           5
            natom           3
            nband          14
           ndtset           2
            ngfft11        30      30     192
            ngfft21        32      32     216
             nkpt           5
            nstep          10
             nsym           1
            ntime          10
           ntypat           2
              occ      2.000000  2.000000  2.000000  2.000000  2.000000  2.000000
                       2.000000  2.000000  2.000000  2.000000  2.000000  2.000000
                       2.000000  0.000000
        optforces           1
            rprim      5.0000000000E-01 -8.6602540378E-01  0.0000000000E+00
                       5.0000000000E-01  8.6602540378E-01  0.0000000000E+00
                       0.0000000000E+00  0.0000000000E+00  1.0000000000E+00
           shiftk      5.00000000E-01  5.00000000E-01  5.00000000E-01
          spgroup           1
           strten11   -3.2177412076E-05  1.9249472650E-05  2.1021451701E-05
                      -5.8745763804E-08  5.0297069989E-09  6.1524380893E-10
           strten21   -4.9483227660E-05  2.5557795931E-06  4.4537959747E-06
                       6.2210028211E-09  7.4039444684E-09 -3.1271329386E-10
           toldff      5.00000000E-05
           tolmxf      5.00000000E-04
            typat      1  2  2
              wtk        0.22222    0.22222    0.22222    0.22222    0.11111
           xangst11    1.5749990511E+00  9.2327157425E-01  4.5353100615E-04
                       1.5749953081E+00 -9.1625252957E-01 -1.5794844257E+00
                       1.5750056408E+00 -9.1634571865E-01  1.5790308947E+00
           xangst21    1.5750006617E+00  9.2399041616E-01  1.4024108760E-06
                       1.5749921100E+00 -9.1666627234E-01 -1.5797459715E+00
                       1.5750072283E+00 -9.1665081779E-01  1.5797445691E+00
            xcart11    2.9763168661E+00  1.7447304216E+00  8.5704939440E-04
                       2.9763097929E+00 -1.7314663494E+00 -2.9847929957E+00
                       2.9763293188E+00 -1.7316424513E+00  2.9839359463E+00
            xcart21    2.9763199098E+00  1.7460888360E+00  2.6501724815E-06
                       2.9763037493E+00 -1.7322482100E+00 -2.9852872457E+00
                       2.9763323188E+00 -1.7322190051E+00  2.9852845955E+00
             xred11    3.3077712990E-01  6.6922226763E-01  2.2676550308E-05
                       6.6793458816E-01  3.3206243286E-01 -7.8974221285E-02
                       6.6795494861E-01  3.3204863284E-01  7.8951544735E-02
             xred21    3.3064588769E-01  6.6935453246E-01  7.0120543801E-08
                       6.6800940605E-01  3.3198558440E-01 -7.8987298575E-02
                       6.6801137293E-01  3.3199321648E-01  7.8987228455E-02
            znucl       42.00000   16.00000

- Timing analysis has been suppressed with timopt=0

 Suggested references for the acknowledgment of ABINIT usage.

 Calculation completed.
.Delivered  13 WARNINGs and   6 COMMENTs to log file.