.Version 9.10.3 of ABINIT

 ABINIT is a project of the Universite Catholique de Louvain,
 Corning Inc. and other collaborators, see ~abinit/doc/developers/contributors.txt .
 acknowledgments of the ABINIT effort.

.Starting date : Wed  6 May 2025.
- ( at 20h49 )

- input  file    -> mos2_k_draft.abi
- output file    -> mos2_k_draft.abo
- root for input  files -> mos2_k_drafti
- root for output files -> mos2_k_drafto

 DATASET   11 : space group P1 (#  1); Bravais aP (primitive triclinic)
     intxc =       0    ionmov =       2      iscf =       7    lmnmax =       6
     lnmax =       6     mgfft =     180  mpssoang =       3    mqgrid =    8507
     natom =       3  nloc_mem =       1    nspden =       1   nspinor =       1
    nsppol =       1      nsym =       1    n1xccc =    2501    ntypat =       2
    occopt =       1   xclevel =       2
-    mband =          14        mffmem =           1         mkmem =          14
       mpw =        6951          nfft =      162000          nkpt =          14
  Rough estimation (10% accuracy) of disk space for files :

[...]

 DATASET   31 : space group P1 (#  1); Bravais aP (primitive triclinic)
     intxc =       0    ionmov =       2      iscf =       7    lmnmax =       6
     lnmax =       6     mgfft =     180  mpssoang =       3    mqgrid =    8507
     natom =       3  nloc_mem =       1    nspden =       1   nspinor =       1
    nsppol =       1      nsym =       1    n1xccc =    2501    ntypat =       2
    occopt =       1   xclevel =       2
-    mband =          14        mffmem =           1         mkmem =          14
       mpw =        6951          nfft =      162000          nkpt =          14
  Rough estimation (10% accuracy) of disk space for files :

------------- Echo of variables that govern the present computation ------------
-
- outvars: echo of selected default values
-   iomode0 =  0 , fftalg0 =512 , wfoptalg0 =  0
-
- outvars: echo of global parameters not present in the input file
-  max_nthreads =    0
-
 -outvars: echo values of preprocessed input variables --------
            acell      5.9526373186E+00  5.9526373186E+00  3.7794522658E+01 Bohr
              amu      9.59400000E+01  3.20660000E+01
      chksymbreak           0
             ecut      2.50000000E+01 Hartree
-          fftalg         512
           getwfk          -1
           ionmov           2
           istwfk        2    0    0    0    0    0    0    0    0    0
                         0    0    0    0
              ixc          11
           jdtset       11   21   31
              kpt      0.00000000E+00  0.00000000E+00  0.00000000E+00
                       1.11111111E-01  1.11111111E-01  0.00000000E+00
                       3.33333333E-01  0.00000000E+00  0.00000000E+00
                       0.00000000E+00  3.33333333E-01  0.00000000E+00
                       2.22222222E-01  2.22222222E-01  0.00000000E+00
                       4.44444444E-01  1.11111111E-01  0.00000000E+00
                       1.11111111E-01  4.44444444E-01  0.00000000E+00
                       3.33333333E-01  3.33333333E-01  0.00000000E+00
                      -4.44444444E-01  2.22222222E-01  0.00000000E+00
                      -2.22222222E-01  1.11111111E-01  0.00000000E+00
                       2.22222222E-01 -4.44444444E-01  0.00000000E+00
                       4.44444444E-01  4.44444444E-01  0.00000000E+00
                      -3.33333333E-01  3.33333333E-01  0.00000000E+00
                      -1.11111111E-01  2.22222222E-01  0.00000000E+00
         kptrlatt        3   -3    0      3    6    0      0    0    1
          kptrlen      3.09308108E+01
P           mkmem          14
            natom           3
            nband          14
           ndtset           3
            ngfft          30      30     180
             nkpt          14
            nstep          10
             nsym           1
            ntime          10
           ntypat           2
              occ      2.000000  2.000000  2.000000  2.000000  2.000000  2.000000
                       2.000000  2.000000  2.000000  2.000000  2.000000  2.000000
                       2.000000  0.000000
        optforces           1
            rprim      5.0000000000E-01 -8.6602540378E-01  0.0000000000E+00
                       5.0000000000E-01  8.6602540378E-01  0.0000000000E+00
                       0.0000000000E+00  0.0000000000E+00  1.0000000000E+00
          spgroup           1
           toldff      5.00000000E-05
           tolmxf      5.00000000E-04
            typat      1  2  2
              wtk        0.03704    0.07407    0.07407    0.07407    0.07407    0.07407
                         0.07407    0.07407    0.07407    0.07407    0.07407    0.07407
                         0.07407    0.07407
           xangst      1.5750000000E+00  9.0932667397E-01  0.0000000000E+00
                       1.5750000000E+00 -9.0932667397E-01 -1.8388847000E+00
                       1.5750000000E+00 -9.0932667397E-01  1.8388847000E+00
            xcart      2.9763186593E+00  1.7183783791E+00  0.0000000000E+00
                       2.9763186593E+00 -1.7183783791E+00 -3.4749884730E+00
                       2.9763186593E+00 -1.7183783791E+00  3.4749884730E+00
             xred      3.3333333333E-01  6.6666666667E-01  0.0000000000E+00
                       6.6666666667E-01  3.3333333333E-01 -9.1944235000E-02
                       6.6666666667E-01  3.3333333333E-01  9.1944235000E-02
            znucl       42.00000   16.00000

 chkinp: Checking input parameters for consistency, jdtset=  11.

[...]

 chkinp: Checking input parameters for consistency, jdtset=  31.

== DATASET 11 ==================================================================
-   mpi_nproc: 1, omp_nthreads: -1 (-1 if OMP is not activated)

--- !DatasetInfo
iteration_state: {dtset: 11, }
dimensions: {natom: 3, nkpt: 14, mband: 14, nsppol: 1, nspinor: 1, nspden: 1, mpw: 6951, }
cutoff_energies: {ecut:  25.0, pawecutdg:  -1.0, }
electrons: {nelect:   2.60000000E+01, charge:   0.00000000E+00, occopt:   1.00000000E+00, tsmear:   1.00000000E-02, }
meta: {optdriver: 0, ionmov: 2, optcell: 0, iscf: 7, paral_kgb: 0, }
...

 Real(R)+Recip(G) space primitive vectors, cartesian coordinates (Bohr,Bohr^-1):
 R(1)=  2.9763187 -5.1551351  0.0000000  G(1)=  0.1679928 -0.0969907  0.0000000
 R(2)=  2.9763187  5.1551351  0.0000000  G(2)=  0.1679928  0.0969907  0.0000000
 R(3)=  0.0000000  0.0000000 37.7945227  G(3)=  0.0000000  0.0000000  0.0264589
 Unit cell volume ucvol=  1.1597873E+03 bohr^3
 Angles (23,13,12)=  9.00000000E+01  9.00000000E+01  1.20000000E+02 degrees

 getcut: wavevector=  0.0000  0.0000  0.0000  ngfft=  30  30 180
         ecut(hartree)=     25.000   => boxcut(ratio)=   2.11597

--- Pseudopotential description ------------------------------------------------
- pspini: atom type   1  psp file is ./persudo/Mo.psp8
- pspatm: opening atomic psp file    ./persudo/Mo.psp8
- Mo    ONCVPSP-3.2.3.1  r_core=   1.45541   1.45541   1.35488
- 42.00000  14.00000    170510                znucl, zion, pspdat
    8   11    2    4       600   0.00000      pspcod,pspxc,lmax,lloc,mmax,r2well
    5.99000000000000    3.00000000000000    0.00000000000000   rchrg,fchrg,qchrg
     nproj     2     2     2
     extension_switch     1
  pspatm : epsatm=   15.95693586
         --- l  ekb(1:nproj) -->
             0   13.833287    1.350687
             1    8.015347    1.134034
             2    2.765699    0.969071
 pspatm: atomic psp has been read  and splines computed

- pspini: atom type   2  psp file is ./persudo/S.psp8
- pspatm: opening atomic psp file    ./persudo/S.psp8
- S     ONCVPSP-4.0.1  r_core=   1.45687   1.45687   1.45687
- 16.00000   6.00000    220131                znucl, zion, pspdat
    8   11    2    4       600   0.00000      pspcod,pspxc,lmax,lloc,mmax,r2well
    5.99000000000000    6.00000000000000    0.00000000000000   rchrg,fchrg,qchrg
     nproj     2     2     2
     extension_switch     1
  pspatm : epsatm=    9.04179351
         --- l  ekb(1:nproj) -->
             0    6.774234    0.542270
             1    3.022426    0.737017
             2   -5.033160   -1.531047
 pspatm: atomic psp has been read  and splines computed

   8.85053595E+02                                ecore*ucvol(ha*bohr**3)

_setup2: Arith. and geom. avg. npw (full set) are    6926.037    6926.015

=== [ionmov= 2] Broyden-Fletcher-Goldfard-Shanno method (forces)

--- Iteration: ( 1/10) Internal Cycle: (1/1)

---SELF-CONSISTENT-FIELD CONVERGENCE--------------------------------------------

--- !BeginCycle
iteration_state: {dtset: 11, itime: 1, icycle: 1, }
solver: {iscf: 7, nstep: 10, nline: 4, wfoptalg: 0, }
tolerances: {toldff: 5.00E-05, }
...

     iter   Etot(hartree)      deltaE(h)  residm     vres2    diffor    maxfor
 ETOT  1  -91.469952937278    -9.147E+01 8.424E-02 9.513E+03 7.976E-02 7.976E-02
 ETOT  2  -86.122484483789     5.347E+00 2.926E-02 9.248E+04 1.092E+00 1.012E+00
 ETOT  3  -92.223654012982    -6.101E+00 3.774E-02 1.851E+03 8.630E-01 1.500E-01
 ETOT  4  -92.297705555808    -7.405E-02 4.769E-03 8.644E+02 2.853E-02 1.219E-01
 ETOT  5  -92.315452542933    -1.775E-02 1.074E-03 4.552E+02 1.813E-02 1.038E-01
 ETOT  6  -92.320294535405    -4.842E-03 3.301E-04 3.093E+02 1.012E-02 9.383E-02
 ETOT  7  -92.323992490460    -3.698E-03 5.031E-04 1.942E+02 8.668E-03 8.516E-02
 ETOT  8  -92.325888863470    -1.896E-03 1.977E-04 1.232E+02 6.090E-03 7.907E-02
 ETOT  9  -92.326877204881    -9.883E-04 2.709E-04 8.196E+01 4.244E-03 7.483E-02
 ETOT 10  -92.327457495570    -5.803E-04 1.548E-04 5.369E+01 3.868E-03 7.097E-02

 Cartesian components of stress tensor (hartree/bohr^3)
  sigma(1 1)=  1.47777792E-04  sigma(3 2)=  7.02190613E-08
  sigma(2 2)=  1.48933121E-04  sigma(3 1)= -5.58245560E-08
  sigma(3 3)=  4.23441207E-04  sigma(2 1)= -3.83809998E-07

 scprqt:  WARNING -
  nstep=   10 was not enough SCF cycles to converge;
  maximum force difference=  3.868E-03 exceeds toldff=  5.000E-05

--- !ResultsGS
iteration_state: {dtset: 11, itime: 1, icycle: 1, }
comment   : Summary of ground state results
lattice_vectors:
- [  2.9763187,  -5.1551351,   0.0000000, ]
- [  2.9763187,   5.1551351,   0.0000000, ]
- [  0.0000000,   0.0000000,  37.7945227, ]
lattice_lengths: [   5.95264,    5.95264,   37.79452, ]
lattice_angles: [ 90.000,  90.000, 120.000, ] # degrees, (23, 13, 12)
lattice_volume:   1.1597873E+03
convergence: {deltae: -5.803E-04, res2:  5.369E+01, residm:  1.548E-04, diffor:  3.868E-03, }
etotal    :  -9.23274575E+01
entropy   :   0.00000000E+00
fermie    :  -6.95730290E-02
cartesian_stress_tensor: # hartree/bohr^3
- [  1.47777792E-04,  -3.83809998E-07,  -5.58245560E-08, ]
- [ -3.83809998E-07,   1.48933121E-04,   7.02190613E-08, ]
- [ -5.58245560E-08,   7.02190613E-08,   4.23441207E-04, ]
pressure_GPa:  -7.0625E+00
xred      :
- [  3.3333E-01,   6.6667E-01,   0.0000E+00, Mo]
- [  6.6667E-01,   3.3333E-01,  -9.1944E-02,  S]
- [  6.6667E-01,   3.3333E-01,   9.1944E-02,  S]
cartesian_forces: # hartree/bohr
- [ -2.98921743E-05,   3.42533416E-05,   7.56929329E-05, ]
- [  1.62766519E-05,  -3.34674861E-05,   7.08941535E-02, ]
[...]
     3       -0.000001104505      0.000000850650     -0.013112745973

[...]

-Cartesian components of stress tensor (GPa)         [Pressure= -1.8389E+00 GPa]
- sigma(1 1)=  1.53206728E+00  sigma(3 2)=  1.21467877E-04
- sigma(2 2)=  1.53200158E+00  sigma(3 1)=  5.06797629E-06
- sigma(3 3)=  2.45263361E+00  sigma(2 1)= -1.20903440E-07

[...]

 mkfilename : getwfk/=0, take file _WFK from output of DATASET  11.

[...]

-inwffil : will read wavefunctions from disk file mos2_k_drafto_DS11_WFK
_setup2: Arith. and geom. avg. npw (full set) are    6926.037    6926.015

[...]

 Difference of energy with previous step (new-old):
           Absolute (Ha)= 6.52967E-02
           Relative     = 7.07423E-04

[...]

--- Iteration: (10/10) Internal Cycle: (1/1)

[...]

 fconv : WARNING -
  ntime=   10 was not enough Broyd/MD steps to converge gradients:
  max grad (force/stress) = 4.8584E-02 > tolmxf= 5.0000E-04 ha/bohr (free atoms)

[...]

== DATASET 31 ==================================================================
-   mpi_nproc: 1, omp_nthreads: -1 (-1 if OMP is not activated)

--- !DatasetInfo
iteration_state: {dtset: 31, }
dimensions: {natom: 3, nkpt: 14, mband: 14, nsppol: 1, nspinor: 1, nspden: 1, mpw: 6951, }
cutoff_energies: {ecut:  25.0, pawecutdg:  -1.0, }
electrons: {nelect:   2.60000000E+01, charge:   0.00000000E+00, occopt:   1.00000000E+00, tsmear:   1.00000000E-02, }
meta: {optdriver: 0, ionmov: 2, optcell: 0, iscf: 7, paral_kgb: 0, }
...

 mkfilename : getwfk/=0, take file _WFK from output of DATASET  21.

 Real(R)+Recip(G) space primitive vectors, cartesian coordinates (Bohr,Bohr^-1):
 R(1)=  2.9763187 -5.1551351  0.0000000  G(1)=  0.1679928 -0.0969907  0.0000000
 R(2)=  2.9763187  5.1551351  0.0000000  G(2)=  0.1679928  0.0969907  0.0000000
 R(3)=  0.0000000  0.0000000 37.7945227  G(3)=  0.0000000  0.0000000  0.0264589
 Unit cell volume ucvol=  1.1597873E+03 bohr^3
 Angles (23,13,12)=  9.00000000E+01  9.00000000E+01  1.20000000E+02 degrees

 getcut: wavevector=  0.0000  0.0000  0.0000  ngfft=  30  30 180
         ecut(hartree)=     25.000   => boxcut(ratio)=   2.11597

-inwffil : will read wavefunctions from disk file mos2_k_drafto_DS21_WFK
_setup2: Arith. and geom. avg. npw (full set) are    6926.037    6926.015

=== [ionmov= 2] Broyden-Fletcher-Goldfard-Shanno method (forces)

[...]

--- Iteration: ( 9/10) Internal Cycle: (1/1)

[...]

 Difference of energy with previous step (new-old):
           Absolute (Ha)=-1.46564E-01
           Relative     =-1.60929E-03

--- Iteration: (10/10) Internal Cycle: (1/1)

---SELF-CONSISTENT-FIELD CONVERGENCE--------------------------------------------

--- !BeginCycle
iteration_state: {dtset: 31, itime: 10, icycle: 1, }
solver: {iscf: 7, nstep: 10, nline: 4, wfoptalg: 0, }
tolerances: {toldff: 5.00E-05, }
...

     iter   Etot(hartree)      deltaE(h)  residm     vres2    diffor    maxfor
 ETOT  1  -37.731374841276    -3.773E+01 5.244E-01 6.697E+06 2.885E+00 2.924E+00
 ETOT  2  -47.440099507353    -9.709E+00 9.978E-02 5.655E+06 2.641E+00 1.390E+00
 ETOT  3  -69.411417788684    -2.197E+01 9.114E-01 2.652E+06 8.190E-01 1.317E+00
 ETOT  4  -87.483136739682    -1.807E+01 1.503E+00 2.088E+05 1.374E+00 5.634E-02
 ETOT  5  -85.308660978163     2.174E+00 1.455E-01 4.618E+05 4.149E-01 4.037E-01
 ETOT  6  -76.965512817115     8.343E+00 4.397E-01 1.792E+06 5.576E-01 8.314E-01
 ETOT  7  -78.152116499935    -1.187E+00 6.301E-02 1.356E+06 7.437E-01 9.691E-01
 ETOT  8  -81.153897951956    -3.002E+00 3.342E-02 1.034E+06 4.565E-01 6.596E-01
 ETOT  9  -80.881029008368     2.729E-01 7.873E-03 1.057E+06 5.972E-02 6.963E-01
 ETOT 10  -82.582281305306    -1.701E+00 5.743E-03 9.027E+05 1.008E-01 6.117E-01

[...]

 scprqt:  WARNING -
  nstep=   10 was not enough SCF cycles to converge;
  maximum force difference=  1.008E-01 exceeds toldff=  5.000E-05

--- !ResultsGS
iteration_state: {dtset: 31, itime: 10, icycle: 1, }
comment   : Summary of ground state results
lattice_vectors:
- [  2.9763187,  -5.1551351,   0.0000000, ]
- [  2.9763187,   5.1551351,   0.0000000, ]
- [  0.0000000,   0.0000000,  37.7945227, ]
lattice_lengths: [   5.95264,    5.95264,   37.79452, ]
lattice_angles: [ 90.000,  90.000, 120.000, ] # degrees, (23, 13, 12)
lattice_volume:   1.1597873E+03
convergence: {deltae: -1.701E+00, res2:  9.027E+05, residm:  5.743E-03, diffor:  1.008E-01, }
etotal    :  -8.25822813E+01
entropy   :   0.00000000E+00
fermie    :  -1.20607064E-01
cartesian_stress_tensor: # hartree/bohr^3
- [ -8.36564152E-03,  -2.44347942E-05,   2.60686660E-05, ]
- [ -2.44347942E-05,  -8.26566579E-03,  -3.12845494E-05, ]
- [  2.60686660E-05,  -3.12845494E-05,   4.55984518E-03, ]
pressure_GPa:   1.1838E+02
xred      :
- [  3.3500E-01,   6.6388E-01,   4.0749E-03, Mo]
- [  6.6573E-01,   3.3494E-01,  -2.9061E-01,  S]
- [  6.6593E-01,   3.3451E-01,   2.8653E-01,  S]
cartesian_forces: # hartree/bohr
- [ -1.89599290E-04,  -6.87625732E-05,   1.57381307E-01, ]
- [  7.55117177E-04,   7.00803208E-04,   4.54343288E-01, ]
- [ -5.65517887E-04,  -6.32040635E-04,  -6.11724595E-01, ]
force_length_stats: {min:   1.57381436E-01, max:   6.11725183E-01, mean:   4.07817025E-01, }
...

 Integrated electronic density in atomic spheres:
 Atom  Sphere_radius  Integrated_density
    1        2.00000         12.47300534
    2        2.00000          2.82786754
    3        2.00000          2.50094347

---OUTPUT-----------------------------------------------------------------------

 Cartesian coordinates (xcart) [bohr]
  2.97299466552430E+00  1.69544595052932E+00  1.54009353431305E-01
  2.97830836894949E+00 -1.70530480829135E+00 -1.09833045602671E+01
  2.97765294341090E+00 -1.70851952136714E+00  1.08292952068358E+01
 Reduced coordinates (xred)
  3.34999157996266E-01  6.63884028197456E-01  4.07491198727643E-03
  6.65732909125184E-01  3.34935604526197E-01 -2.90605722414797E-01
  6.65934599545218E-01  3.34513700609689E-01  2.86530810427520E-01
 Cartesian forces (fcart) [Ha/bohr]; max,rms= 6.11725E-01 2.59359E-01 (free atoms)
 -1.89599290138629E-04 -6.87625732307360E-05  1.57381306850408E-01
  7.55117176941561E-04  7.00803208035627E-04  4.54343288163316E-01
 -5.65517886802932E-04 -6.32040634804891E-04 -6.11724595013724E-01
 Gradient of E wrt nuclear positions in reduced coordinates (gred)
  2.09827547629711E-04  9.18788262427623E-04 -5.94815136765819E+00
  1.36526589845317E-03 -5.86020458582367E-03 -1.71716876988682E+01
 -1.57509344608288E-03  4.94141632339604E-03  2.31198390665264E+01
 Total energy (etotal) [Ha]= -8.25822813053065E+01

 Difference of energy with previous step (new-old):
           Absolute (Ha)= 8.56469E+00
           Relative     = 9.85982E-02

 fconv : WARNING -
  ntime=   10 was not enough Broyd/MD steps to converge gradients:
  max grad (force/stress) = 6.1172E-01 > tolmxf= 5.0000E-04 ha/bohr (free atoms)

 ----iterations are completed or convergence reached----

 Mean square residual over all n,k,spin=   13.133E-05; max=  57.434E-04
 reduced coordinates (array xred) for    3 atoms
       0.334999157996      0.663884028197      0.004074911987
       0.665732909125      0.334935604526     -0.290605722415
       0.665934599545      0.334513700610      0.286530810428
 rms dE/dt=  9.8051E+00; max dE/dt=  2.2721E+01; dE/dt below (all hartree)
    1      -0.000896438162      0.005472785842     -6.347310476646
    2       0.000259000189     -0.001306207007    -17.570846807856
    3      -0.002681359156      0.009495413903     22.720679957539

 cartesian coordinates (angstrom) at end:
    1      1.57324101825511     0.89719135541632     0.08149823974553
    2      1.57605290900093    -0.90240843824672    -5.81211444829594
    3      1.57570607274398    -0.90410959113858     5.73061620855041

 cartesian forces (hartree/bohr) at end:
    1     -0.00018959929014    -0.00006876257323     0.15738130685041
    2      0.00075511717694     0.00070080320804     0.45434328816332
    3     -0.00056551788680    -0.00063204063480    -0.61172459501372
 frms,max,avg= 2.5935936E-01 6.1172460E-01  -5.792E-04 -5.490E-04  1.056E-02 h/b

 cartesian forces (eV/Angstrom) at end:
    1     -0.00974958667871    -0.00353591338593     8.09287150613656
    2      0.03882968319022     0.03603674684892    23.36326927489716
    3     -0.02908009651151    -0.03250083346299   -31.45614078103371
 frms,max,avg= 1.3336793E+01 3.1456141E+01  -2.978E-02 -2.823E-02  5.431E-01 e/A
 length scales=  5.952637318590  5.952637318590 37.794522657713 bohr
              =  3.150000000000  3.150000000000 20.000000000000 angstroms
 prteigrs : about to open file mos2_k_drafto_DS31_EIG
 Fermi (or HOMO) energy (hartree) =  -0.12061   Average Vxc (hartree)=  -0.19748
 Eigenvalues (hartree) for nkpt=  14  k points:
 kpt#   1, nband= 14, wtk=  0.03704, kpt=  0.0000  0.0000  0.0000 (reduced coord)
  -2.43663   -1.48032   -1.46761   -1.46443   -0.56969   -0.56533   -0.29341   -0.18677
  -0.17790   -0.17642   -0.17590   -0.16771   -0.12061   -0.08513
 prteigrs : prtvol=0 or 1, do not print more k-points.

--- !EnergyTerms
iteration_state     : {dtset: 31, itime: 10, icycle: 1, }
comment             : Components of total free energy in Hartree
kinetic             :  3.32692753700506E+01
hartree             :  1.34135283222326E+02
xc                  : -1.67454786235930E+01
Ewald energy        :  6.24754334339934E+00
psp_core            :  7.63117176066322E-01
local_psp           : -2.51826623684018E+02
non_local_psp       :  1.15746018904626E+01
total_energy        : -8.25822813053065E+01
total_energy_eV     : -2.24717815663320E+03
band_energy         : -1.83882785791207E+01
...

 rms coord change=  9.2714E-02   atom, delta coord (reduced):
     1        0.001665824663     -0.002782638469      0.004074911987
     2       -0.000933757541      0.001602271193     -0.198661487415
     3       -0.000732067121      0.001180367276      0.194586575428

 Cartesian components of stress tensor (hartree/bohr^3)
  sigma(1 1)= -8.36564152E-03  sigma(3 2)= -3.12845494E-05
  sigma(2 2)= -8.26566579E-03  sigma(3 1)=  2.60686660E-05
  sigma(3 3)=  4.55984518E-03  sigma(2 1)= -2.44347942E-05

-Cartesian components of stress tensor (GPa)         [Pressure=  1.1838E+02 GPa]
- sigma(1 1)= -2.46125629E+02  sigma(3 2)= -9.20423064E-01
- sigma(2 2)= -2.43184243E+02  sigma(3 1)=  7.66966504E-01
- sigma(3 3)=  1.34155254E+02  sigma(2 1)= -7.18896345E-01

== END DATASET(S) ==============================================================

 -outvars: echo values of variables after computation  --------
            acell      5.9526373186E+00  5.9526373186E+00  3.7794522658E+01 Bohr
              amu      9.59400000E+01  3.20660000E+01
      chksymbreak           0
             ecut      2.50000000E+01 Hartree
           etotal11   -9.2365236474E+01
           etotal21   -9.2348637846E+01
           etotal31   -8.2582281305E+01
            fcart11   -6.7801795469E-07  9.9350012717E-07  1.5770199652E-05
                       3.7193654008E-07  8.5886072911E-08  3.0408480499E-04
                       3.0608141461E-07 -1.0793862001E-06 -3.1985500464E-04
            fcart21    2.9747028542E-06 -2.5101026858E-05  1.2721749654E-04
                      -7.2444726428E-06  9.0052928345E-06  4.8456755195E-02
                       4.2697697885E-06  1.6095734024E-05 -4.8583972691E-02
            fcart31   -1.8959929014E-04 -6.8762573231E-05  1.5738130685E-01
                       7.5511717694E-04  7.0080320804E-04  4.5434328816E-01
                      -5.6551788680E-04 -6.3204063480E-04 -6.1172459501E-01
-          fftalg         512
           getwfk          -1
           ionmov           2
           istwfk        2    0    0    0    0    0    0    0    0    0
                         0    0    0    0
              ixc          11
           jdtset       11   21   31
              kpt      0.00000000E+00  0.00000000E+00  0.00000000E+00
                       1.11111111E-01  1.11111111E-01  0.00000000E+00
                       3.33333333E-01  0.00000000E+00  0.00000000E+00
                       0.00000000E+00  3.33333333E-01  0.00000000E+00
                       2.22222222E-01  2.22222222E-01  0.00000000E+00
                       4.44444444E-01  1.11111111E-01  0.00000000E+00
                       1.11111111E-01  4.44444444E-01  0.00000000E+00
                       3.33333333E-01  3.33333333E-01  0.00000000E+00
                      -4.44444444E-01  2.22222222E-01  0.00000000E+00
                      -2.22222222E-01  1.11111111E-01  0.00000000E+00
                       2.22222222E-01 -4.44444444E-01  0.00000000E+00
                       4.44444444E-01  4.44444444E-01  0.00000000E+00
                      -3.33333333E-01  3.33333333E-01  0.00000000E+00
                      -1.11111111E-01  2.22222222E-01  0.00000000E+00
         kptrlatt        3   -3    0      3    6    0      0    0    1
          kptrlen      3.09308108E+01
P           mkmem          14
            natom           3
            nband          14
           ndtset           3
            ngfft          30      30     180
             nkpt          14
            nstep          10
             nsym           1
            ntime          10
           ntypat           2
              occ      2.000000  2.000000  2.000000  2.000000  2.000000  2.000000
                       2.000000  2.000000  2.000000  2.000000  2.000000  2.000000
                       2.000000  0.000000
        optforces           1
            rprim      5.0000000000E-01 -8.6602540378E-01  0.0000000000E+00
                       5.0000000000E-01  8.6602540378E-01  0.0000000000E+00
                       0.0000000000E+00  0.0000000000E+00  1.0000000000E+00
          spgroup           1
           strten11    5.2073917181E-05  5.2071683999E-05  8.3363336140E-05
                       4.1286099318E-09  1.7225704188E-10 -4.1094250789E-12
           strten21    1.3249175942E-04  1.3242747993E-04  3.5653044993E-04
                      -1.9820041927E-08 -3.1758175145E-08  2.5179942818E-09
           strten31   -8.3656415165E-03 -8.2656657927E-03  4.5598451783E-03
                      -3.1284549352E-05  2.6068665993E-05 -2.4434794218E-05
           toldff      5.00000000E-05
           tolmxf      5.00000000E-04
            typat      1  2  2
              wtk        0.03704    0.07407    0.07407    0.07407    0.07407    0.07407
                         0.07407    0.07407    0.07407    0.07407    0.07407    0.07407
                         0.07407    0.07407
           xangst11    1.5750011936E+00  9.0932490216E-01 -2.6540549206E-05
                       1.5749992062E+00 -9.0933023578E-01 -1.5766032400E+00
                       1.5749996002E+00 -9.0932134035E-01  1.5766297805E+00
           xangst21    1.5749991962E+00  9.0938755543E-01 -1.8899434465E-04
                       1.5750496851E+00 -9.0932595161E-01 -1.7437018522E+00
                       1.5749511187E+00 -9.0938827780E-01  1.7438908465E+00
           xangst31    1.5732410183E+00  8.9719135542E-01  8.1498239746E-02
                       1.5760529090E+00 -9.0240843825E-01 -5.8121144483E+00
                       1.5757060727E+00 -9.0410959114E-01  5.7306162086E+00
            xcart11    2.9763209149E+00  1.7183750309E+00 -5.0154369416E-05
                       2.9763171593E+00 -1.7183851100E+00 -2.9793483438E+00
                       2.9763179037E+00 -1.7183683000E+00  2.9793984982E+00
            xcart21    2.9763171403E+00  1.7184934284E+00 -3.5714755205E-04
                       2.9764125506E+00 -1.7183770141E+00 -3.2951189580E+00
                       2.9762262870E+00 -1.7184947935E+00  3.2954761055E+00
            xcart31    2.9729946655E+00  1.6954459505E+00  1.5400935343E-01
                       2.9783083689E+00 -1.7053048083E+00 -1.0983304560E+01
                       2.9776529434E+00 -1.7085195214E+00  1.0829295207E+01
             xred11    3.3333403700E-01  6.6666672084E-01 -1.3270274603E-06
                       6.6666706750E-01  3.3333242851E-01 -7.8830161999E-02
                       6.6666556216E-01  3.3333418398E-01  7.8831489027E-02
             xred21    3.3332191944E-01  6.6667757019E-01 -9.4497172325E-06
                       6.6668230732E-01  3.3334923878E-01 -8.7185092608E-02
                       6.6666243990E-01  3.3330652436E-01  8.7194542325E-02
             xred31    3.3499915800E-01  6.6388402820E-01  4.0749119873E-03
                       6.6573290913E-01  3.3493560453E-01 -2.9060572241E-01
                       6.6593459955E-01  3.3451370061E-01  2.8653081043E-01
            znucl       42.00000   16.00000

- Timing analysis has been suppressed with timopt=0

 Suggested references for the acknowledgment of ABINIT usage.

 Calculation completed.
.Delivered  29 WARNINGs and  11 COMMENTs to log file.