.Version 9.10.3 of ABINIT

 ABINIT is a project of the Universite Catholique de Louvain,
 Corning Inc. and other collaborators, see ~abinit/doc/developers/contributors.txt .
 acknowledgments of the ABINIT effort.

.Starting date : Wed  7 May 2025.
- ( at 05h52 )

- input  file    -> mos2.abi
- output file    -> mos2.abo
- root for input  files -> mos2i
- root for output files -> mos2o

 DATASET    1 : space group P1 (#  1); Bravais aP (primitive triclinic)
     intxc =       0    ionmov =       0      iscf =       7    lmnmax =       6
     lnmax =       6     mgfft =     120  mpssoang =       3    mqgrid =    5894
     natom =       3  nloc_mem =       1    nspden =       1   nspinor =       1
    nsppol =       1      nsym =       1    n1xccc =    2501    ntypat =       2
    occopt =       1   xclevel =       2
-    mband =          14        mffmem =           1         mkmem =          20
       mpw =        2322          nfft =       48000          nkpt =          20
  Rough estimation (10% accuracy) of disk space for files :

 DATASET    2 : space group P1 (#  1); Bravais aP (primitive triclinic)
     intxc =       0    ionmov =       0      iscf =      -2    lmnmax =       6
     lnmax =       6     mgfft =     120  mpssoang =       3    mqgrid =    5894
     natom =       3  nloc_mem =       1    nspden =       1   nspinor =       1
    nsppol =       1      nsym =       1    n1xccc =    2501    ntypat =       2
    occopt =       1   xclevel =       2
-    mband =           4        mffmem =           1         mkmem =          21
       mpw =        2321          nfft =       48000          nkpt =          21
  Rough estimation (10% accuracy) of disk space for files :

------------- Echo of variables that govern the present computation ------------
-
- outvars: echo of selected default values
-   iomode0 =  0 , fftalg0 =512 , wfoptalg0 =  0
-
- outvars: echo of global parameters not present in the input file
-  max_nthreads =    0
-
 -outvars: echo values of preprocessed input variables --------
            acell      5.9526373186E+00  5.9526373186E+00  3.7794522658E+01 Bohr
              amu      9.59400000E+01  3.20660000E+01
      chksymbreak           0
             ecut      1.20000000E+01 Hartree
           enunit1          0
           enunit2          1
-          fftalg         512
           getden1          0
           getden2         -1
             iscf1          7
             iscf2         -2
           istwfk1       4    0    0    5    0    0    0    0    0    0
                         0    0    0    0    0    0    8    0    0    9
           istwfk2       2    0    0    0    0    0    0    0    0    0
                         0    0    0    0    0    0    0    0    0    0
                         2
              ixc          11
           jdtset        1    2
              kpt1     0.00000000E+00  0.00000000E+00  5.00000000E-01
                       1.66666667E-01  0.00000000E+00  5.00000000E-01
                       3.33333333E-01  0.00000000E+00  5.00000000E-01
                       5.00000000E-01  0.00000000E+00  5.00000000E-01
                       0.00000000E+00  1.66666667E-01  5.00000000E-01
                       1.66666667E-01  1.66666667E-01  5.00000000E-01
                       3.33333333E-01  1.66666667E-01  5.00000000E-01
                       5.00000000E-01  1.66666667E-01  5.00000000E-01
                      -3.33333333E-01  1.66666667E-01  5.00000000E-01
                      -1.66666667E-01  1.66666667E-01  5.00000000E-01
                       0.00000000E+00  3.33333333E-01  5.00000000E-01
                       1.66666667E-01  3.33333333E-01  5.00000000E-01
                       3.33333333E-01  3.33333333E-01  5.00000000E-01
                       5.00000000E-01  3.33333333E-01  5.00000000E-01
                      -3.33333333E-01  3.33333333E-01  5.00000000E-01
                      -1.66666667E-01  3.33333333E-01  5.00000000E-01
                       0.00000000E+00  5.00000000E-01  5.00000000E-01
                       1.66666667E-01  5.00000000E-01  5.00000000E-01
                       3.33333333E-01  5.00000000E-01  5.00000000E-01
                       5.00000000E-01  5.00000000E-01  5.00000000E-01
              kpt2     0.00000000E+00  0.00000000E+00  0.00000000E+00
                       3.33333333E-02  3.33333333E-02  0.00000000E+00
                       6.66666667E-02  6.66666667E-02  0.00000000E+00
                       1.00000000E-01  1.00000000E-01  0.00000000E+00
                       1.33333333E-01  1.33333333E-01  0.00000000E+00
                       1.66666667E-01  1.66666667E-01  0.00000000E+00
                       2.00000000E-01  2.00000000E-01  0.00000000E+00
                       2.33333333E-01  2.33333333E-01  0.00000000E+00
                       2.66666667E-01  2.66666667E-01  0.00000000E+00
                       3.00000000E-01  3.00000000E-01  0.00000000E+00
                       3.33333333E-01  3.33333333E-01  0.00000000E+00
                       3.00000000E-01  3.00000000E-01  0.00000000E+00
                       2.66666667E-01  2.66666667E-01  0.00000000E+00
                       2.33333333E-01  2.33333333E-01  0.00000000E+00
                       2.00000000E-01  2.00000000E-01  0.00000000E+00
                       1.66666667E-01  1.66666667E-01  0.00000000E+00
                       1.33333333E-01  1.33333333E-01  0.00000000E+00
                       1.00000000E-01  1.00000000E-01  0.00000000E+00
                       6.66666667E-02  6.66666667E-02  0.00000000E+00
                       3.33333333E-02  3.33333333E-02  0.00000000E+00
                       0.00000000E+00  0.00000000E+00  0.00000000E+00
           kptopt1          1
           kptopt2         -2
         kptrlatt        6    0    0      0    6    0      0    0    1
          kptrlen1     3.57158239E+01
          kptrlen2     3.00000000E+01
P           mkmem1         20
P           mkmem2         21
            natom           3
            nband1         14
            nband2          4
           nbdbuf1          0
           nbdbuf2          2
           ndtset           2
           ndivsm1          0
           ndivsm2         10
            ngfft          20      20     120
             nkpt1         20
             nkpt2         21
            nstep          10
             nsym           1
           ntypat           2
              occ      2.000000  2.000000  2.000000  2.000000  2.000000  2.000000
                       2.000000  2.000000  2.000000  2.000000  2.000000  2.000000
                       2.000000  0.000000
            rprim      5.0000000000E-01 -8.6602540378E-01  0.0000000000E+00
                       5.0000000000E-01  8.6602540378E-01  0.0000000000E+00
                       0.0000000000E+00  0.0000000000E+00  1.0000000000E+00
           shiftk1     0.00000000E+00  0.00000000E+00  5.00000000E-01
           shiftk2     5.00000000E-01  5.00000000E-01  5.00000000E-01
          spgroup           1
           toldfe1     1.00000000E-06 Hartree
           toldfe2     0.00000000E+00 Hartree
           tolwfr1     0.00000000E+00
           tolwfr2     1.00000000E-12
            typat      1  2  2
              wtk1       0.02778    0.05556    0.05556    0.02778    0.05556    0.05556
                         0.05556    0.05556    0.05556    0.05556    0.05556    0.05556
                         0.05556    0.05556    0.05556    0.05556    0.02778    0.05556
                         0.05556    0.02778
              wtk2       1.00000    1.00000    1.00000    1.00000    1.00000    1.00000
                         1.00000    1.00000    1.00000    1.00000    1.00000    1.00000
                         1.00000    1.00000    1.00000    1.00000    1.00000    1.00000
                         1.00000    1.00000    1.00000
           xangst      1.5750000000E+00  9.0932667397E-01  0.0000000000E+00
                       1.5750000000E+00 -9.0932667397E-01 -1.8388847000E+00
                       1.5750000000E+00 -9.0932667397E-01  1.8388847000E+00
            xcart      2.9763186593E+00  1.7183783791E+00  0.0000000000E+00
                       2.9763186593E+00 -1.7183783791E+00 -3.4749884730E+00
                       2.9763186593E+00 -1.7183783791E+00  3.4749884730E+00
             xred      3.3333333333E-01  6.6666666667E-01  0.0000000000E+00
                       6.6666666667E-01  3.3333333333E-01 -9.1944235000E-02
                       6.6666666667E-01  3.3333333333E-01  9.1944235000E-02
            znucl       42.00000   16.00000

 chkinp: Checking input parameters for consistency, jdtset=   1.

 chkinp: Checking input parameters for consistency, jdtset=   2.

== DATASET  1 ==================================================================
-   mpi_nproc: 1, omp_nthreads: -1 (-1 if OMP is not activated)

--- !DatasetInfo
iteration_state: {dtset: 1, }
dimensions: {natom: 3, nkpt: 20, mband: 14, nsppol: 1, nspinor: 1, nspden: 1, mpw: 2322, }
cutoff_energies: {ecut:  12.0, pawecutdg:  -1.0, }
electrons: {nelect:   2.60000000E+01, charge:   0.00000000E+00, occopt:   1.00000000E+00, tsmear:   1.00000000E-02, }
meta: {optdriver: 0, ionmov: 0, optcell: 0, iscf: 7, paral_kgb: 0, }
...

 Real(R)+Recip(G) space primitive vectors, cartesian coordinates (Bohr,Bohr^-1):
 R(1)=  2.9763187 -5.1551351  0.0000000  G(1)=  0.1679928 -0.0969907  0.0000000
 R(2)=  2.9763187  5.1551351  0.0000000  G(2)=  0.1679928  0.0969907  0.0000000
 R(3)=  0.0000000  0.0000000 37.7945227  G(3)=  0.0000000  0.0000000  0.0264589
 Unit cell volume ucvol=  1.1597873E+03 bohr^3
 Angles (23,13,12)=  9.00000000E+01  9.00000000E+01  1.20000000E+02 degrees

 getcut: wavevector=  0.0000  0.0000  0.0000  ngfft=  20  20 120
         ecut(hartree)=     12.000   => boxcut(ratio)=   2.03609

--- Pseudopotential description ------------------------------------------------
- pspini: atom type   1  psp file is ./persudo/Mo.psp8
- pspatm: opening atomic psp file    ./persudo/Mo.psp8
- Mo    ONCVPSP-3.2.3.1  r_core=   1.45541   1.45541   1.35488
- 42.00000  14.00000    170510                znucl, zion, pspdat
    8   11    2    4       600   0.00000      pspcod,pspxc,lmax,lloc,mmax,r2well
    5.99000000000000    3.00000000000000    0.00000000000000   rchrg,fchrg,qchrg
     nproj     2     2     2
     extension_switch     1
  pspatm : epsatm=   15.95693586
         --- l  ekb(1:nproj) -->
             0   13.833287    1.350687
             1    8.015347    1.134034
             2    2.765699    0.969071
 pspatm: atomic psp has been read  and splines computed

- pspini: atom type   2  psp file is ./persudo/S.psp8
- pspatm: opening atomic psp file    ./persudo/S.psp8
- S     ONCVPSP-4.0.1  r_core=   1.45687   1.45687   1.45687
- 16.00000   6.00000    220131                znucl, zion, pspdat
    8   11    2    4       600   0.00000      pspcod,pspxc,lmax,lloc,mmax,r2well
    5.99000000000000    6.00000000000000    0.00000000000000   rchrg,fchrg,qchrg
     nproj     2     2     2
     extension_switch     1
  pspatm : epsatm=    9.04179351
         --- l  ekb(1:nproj) -->
             0    6.774234    0.542270
             1    3.022426    0.737017
[...]
- sigma(3 3)=  3.27273824E+01  sigma(2 1)=  1.08546825E-03

== DATASET  2 ==================================================================
-   mpi_nproc: 1, omp_nthreads: -1 (-1 if OMP is not activated)

--- !DatasetInfo
iteration_state: {dtset: 2, }
dimensions: {natom: 3, nkpt: 21, mband: 4, nsppol: 1, nspinor: 1, nspden: 1, mpw: 2321, }
cutoff_energies: {ecut:  12.0, pawecutdg:  -1.0, }
electrons: {nelect:   2.60000000E+01, charge:   0.00000000E+00, occopt:   1.00000000E+00, tsmear:   1.00000000E-02, }
meta: {optdriver: 0, ionmov: 0, optcell: 0, iscf: -2, paral_kgb: 0, }
...

 mkfilename : getden/=0, take file _DEN from output of DATASET   1.

 Real(R)+Recip(G) space primitive vectors, cartesian coordinates (Bohr,Bohr^-1):
 R(1)=  2.9763187 -5.1551351  0.0000000  G(1)=  0.1679928 -0.0969907  0.0000000
 R(2)=  2.9763187  5.1551351  0.0000000  G(2)=  0.1679928  0.0969907  0.0000000
 R(3)=  0.0000000  0.0000000 37.7945227  G(3)=  0.0000000  0.0000000  0.0264589
 Unit cell volume ucvol=  1.1597873E+03 bohr^3
 Angles (23,13,12)=  9.00000000E+01  9.00000000E+01  1.20000000E+02 degrees

 getcut: wavevector=  0.0000  0.0000  0.0000  ngfft=  20  20 120
         ecut(hartree)=     12.000   => boxcut(ratio)=   2.03609

 prteigrs : about to open file mos2o_DS2_EIG
 Non-SCF case, kpt    1 (  0.00000  0.00000  0.00000), residuals and eigenvalues=
  6.26E-13  6.05E-13  7.11E-13  6.42E-13
 -2.2369E+00 -1.3725E+00 -1.3622E+00 -1.3622E+00
 Non-SCF case, kpt    2 (  0.03333  0.03333  0.00000), residuals and eigenvalues=
  2.84E-13  2.51E-13  2.92E-13  7.93E-13
 -2.2361E+00 -1.3724E+00 -1.3627E+00 -1.3623E+00
 Non-SCF case, kpt    3 (  0.06667  0.06667  0.00000), residuals and eigenvalues=
  3.15E-13  3.13E-13  4.21E-13  2.64E-13
 -2.2360E+00 -1.3722E+00 -1.3638E+00 -1.3626E+00
 Non-SCF case, kpt    4 (  0.10000  0.10000  0.00000), residuals and eigenvalues=
  5.12E-13  8.81E-13  5.91E-13  5.86E-13
 -2.2355E+00 -1.3719E+00 -1.3656E+00 -1.3631E+00
 Non-SCF case, kpt    5 (  0.13333  0.13333  0.00000), residuals and eigenvalues=
  3.87E-13  5.81E-13  9.41E-13  3.72E-13
 -2.2355E+00 -1.3715E+00 -1.3677E+00 -1.3639E+00
 Non-SCF case, kpt    6 (  0.16667  0.16667  0.00000), residuals and eigenvalues=
  5.03E-13  2.31E-13  5.03E-13  4.60E-13
 -2.2329E+00 -1.3711E+00 -1.3697E+00 -1.3648E+00
 Non-SCF case, kpt    7 (  0.20000  0.20000  0.00000), residuals and eigenvalues=
  4.99E-13  5.10E-13  5.50E-13  5.19E-13
 -2.2322E+00 -1.3713E+00 -1.3708E+00 -1.3659E+00
 Non-SCF case, kpt    8 (  0.23333  0.23333  0.00000), residuals and eigenvalues=
  9.05E-13  6.45E-13  2.29E-13  4.81E-13
 -2.2322E+00 -1.3724E+00 -1.3704E+00 -1.3671E+00
 Non-SCF case, kpt    9 (  0.26667  0.26667  0.00000), residuals and eigenvalues=
  6.29E-13  3.20E-13  5.72E-13  5.17E-13
 -2.2288E+00 -1.3727E+00 -1.3702E+00 -1.3684E+00
 Non-SCF case, kpt   10 (  0.30000  0.30000  0.00000), residuals and eigenvalues=
  3.77E-13  4.09E-13  3.79E-13  9.82E-13
 -2.2286E+00 -1.3723E+00 -1.3701E+00 -1.3698E+00
 Non-SCF case, kpt   11 (  0.33333  0.33333  0.00000), residuals and eigenvalues=
  4.99E-13  9.52E-13  7.46E-13  2.14E-13
 -2.2268E+00 -1.3715E+00 -1.3709E+00 -1.3701E+00
 Non-SCF case, kpt   12 (  0.30000  0.30000  0.00000), residuals and eigenvalues=
  3.77E-13  4.09E-13  3.79E-13  9.82E-13
 -2.2286E+00 -1.3723E+00 -1.3701E+00 -1.3698E+00
 Non-SCF case, kpt   13 (  0.26667  0.26667  0.00000), residuals and eigenvalues=
  6.29E-13  3.20E-13  5.72E-13  5.17E-13
 -2.2288E+00 -1.3727E+00 -1.3702E+00 -1.3684E+00
 Non-SCF case, kpt   14 (  0.23333  0.23333  0.00000), residuals and eigenvalues=
  9.05E-13  6.45E-13  2.29E-13  4.81E-13
 -2.2322E+00 -1.3724E+00 -1.3704E+00 -1.3671E+00
 Non-SCF case, kpt   15 (  0.20000  0.20000  0.00000), residuals and eigenvalues=
  4.99E-13  5.10E-13  5.50E-13  5.19E-13
 -2.2322E+00 -1.3713E+00 -1.3708E+00 -1.3659E+00
 Non-SCF case, kpt   16 (  0.16667  0.16667  0.00000), residuals and eigenvalues=
  5.03E-13  2.31E-13  5.03E-13  4.60E-13
 -2.2329E+00 -1.3711E+00 -1.3697E+00 -1.3648E+00
 Non-SCF case, kpt   17 (  0.13333  0.13333  0.00000), residuals and eigenvalues=
  3.87E-13  5.81E-13  9.41E-13  3.72E-13
 -2.2355E+00 -1.3715E+00 -1.3677E+00 -1.3639E+00
 Non-SCF case, kpt   18 (  0.10000  0.10000  0.00000), residuals and eigenvalues=
  5.12E-13  8.81E-13  5.91E-13  5.86E-13
 -2.2355E+00 -1.3719E+00 -1.3656E+00 -1.3631E+00
 Non-SCF case, kpt   19 (  0.06667  0.06667  0.00000), residuals and eigenvalues=
  3.15E-13  3.13E-13  4.21E-13  2.64E-13
 -2.2360E+00 -1.3722E+00 -1.3638E+00 -1.3626E+00
 Non-SCF case, kpt   20 (  0.03333  0.03333  0.00000), residuals and eigenvalues=
  2.84E-13  2.51E-13  2.92E-13  7.93E-13
 -2.2361E+00 -1.3724E+00 -1.3627E+00 -1.3623E+00
 Non-SCF case, kpt   21 (  0.00000  0.00000  0.00000), residuals and eigenvalues=
  6.26E-13  6.05E-13  7.11E-13  6.42E-13
 -2.2369E+00 -1.3725E+00 -1.3622E+00 -1.3622E+00

--- !ResultsGS
iteration_state: {dtset: 2, }
comment   : Summary of ground state results
lattice_vectors:
- [  2.9763187,  -5.1551351,   0.0000000, ]
- [  2.9763187,   5.1551351,   0.0000000, ]
- [  0.0000000,   0.0000000,  37.7945227, ]
lattice_lengths: [   5.95264,    5.95264,   37.79452, ]
lattice_angles: [ 90.000,  90.000, 120.000, ] # degrees, (23, 13, 12)
lattice_volume:   1.1597873E+03
convergence: {deltae:  0.000E+00, res2:  0.000E+00, residm:  9.516E-13, diffor:  0.000E+00, }
etotal    :  -9.18525358E+01
entropy   :   0.00000000E+00
fermie    :  -5.73161290E-02
cartesian_stress_tensor: null
pressure_GPa: null
xred      :
- [  3.3333E-01,   6.6667E-01,   0.0000E+00, Mo]
- [  6.6667E-01,   3.3333E-01,  -9.1944E-02,  S]
- [  6.6667E-01,   3.3333E-01,   9.1944E-02,  S]
cartesian_forces: null
force_length_stats: {min: null, max: null, mean: null, }
...

 Integrated electronic density in atomic spheres:
 Atom  Sphere_radius  Integrated_density
    1        2.00000         10.37238136
    2        2.00000          3.83131304
    3        2.00000          3.83137151

 ----iterations are completed or convergence reached----

 Mean square residual over all n,k,spin=   50.036E-14; max=  95.162E-14
 reduced coordinates (array xred) for    3 atoms
       0.333333333333      0.666666666667      0.000000000000
       0.666666666667      0.333333333333     -0.091944235000
       0.666666666667      0.333333333333      0.091944235000

 cartesian coordinates (angstrom) at end:
    1      1.57500000000000     0.90932667396900     0.00000000000000
    2      1.57500000000000    -0.90932667396900    -1.83888470000000
    3      1.57500000000000    -0.90932667396900     1.83888470000000
 length scales=  5.952637318590  5.952637318590 37.794522657713 bohr
              =  3.150000000000  3.150000000000 20.000000000000 angstroms
 prteigrs : about to open file mos2o_DS2_EIG
 Eigenvalues (   eV  ) for nkpt=  21  k points:
 kpt#   1, nband=  4, wtk=  1.00000, kpt=  0.0000  0.0000  0.0000 (reduced coord)
 -60.86925  -37.34772  -37.06867  -37.06855
 kpt#   2, nband=  4, wtk=  1.00000, kpt=  0.0333  0.0333  0.0000 (reduced coord)
 -60.84779  -37.34564  -37.07969  -37.07119
 kpt#   3, nband=  4, wtk=  1.00000, kpt=  0.0667  0.0667  0.0000 (reduced coord)
 -60.84514  -37.34002  -37.11211  -37.07942
 kpt#   4, nband=  4, wtk=  1.00000, kpt=  0.1000  0.1000  0.0000 (reduced coord)
 -60.83052  -37.33168  -37.16008  -37.09317
 kpt#   5, nband=  4, wtk=  1.00000, kpt=  0.1333  0.1333  0.0000 (reduced coord)
 -60.83112  -37.32152  -37.21582  -37.11298
 kpt#   6, nband=  4, wtk=  1.00000, kpt=  0.1667  0.1667  0.0000 (reduced coord)
 -60.75904  -37.31032  -37.27059  -37.13733
 kpt#   7, nband=  4, wtk=  1.00000, kpt=  0.2000  0.2000  0.0000 (reduced coord)
 -60.74217  -37.31616  -37.30009  -37.16720
 kpt#   8, nband=  4, wtk=  1.00000, kpt=  0.2333  0.2333  0.0000 (reduced coord)
 -60.74085  -37.34554  -37.29166  -37.20084
 kpt#   9, nband=  4, wtk=  1.00000, kpt=  0.2667  0.2667  0.0000 (reduced coord)
 -60.64986  -37.35362  -37.28509  -37.23696
 kpt#  10, nband=  4, wtk=  1.00000, kpt=  0.3000  0.3000  0.0000 (reduced coord)
 -60.64271  -37.34223  -37.28184  -37.27418
 kpt#  11, nband=  4, wtk=  1.00000, kpt=  0.3333  0.3333  0.0000 (reduced coord)
 -60.59435  -37.32011  -37.30338  -37.28096
 kpt#  12, nband=  4, wtk=  1.00000, kpt=  0.3000  0.3000  0.0000 (reduced coord)
 -60.64271  -37.34223  -37.28184  -37.27418
 kpt#  13, nband=  4, wtk=  1.00000, kpt=  0.2667  0.2667  0.0000 (reduced coord)
 -60.64986  -37.35362  -37.28509  -37.23696
 kpt#  14, nband=  4, wtk=  1.00000, kpt=  0.2333  0.2333  0.0000 (reduced coord)
 -60.74085  -37.34554  -37.29166  -37.20084
 kpt#  15, nband=  4, wtk=  1.00000, kpt=  0.2000  0.2000  0.0000 (reduced coord)
 -60.74217  -37.31616  -37.30009  -37.16720
 kpt#  16, nband=  4, wtk=  1.00000, kpt=  0.1667  0.1667  0.0000 (reduced coord)
 -60.75904  -37.31032  -37.27059  -37.13733
 kpt#  17, nband=  4, wtk=  1.00000, kpt=  0.1333  0.1333  0.0000 (reduced coord)
 -60.83112  -37.32152  -37.21582  -37.11298
 kpt#  18, nband=  4, wtk=  1.00000, kpt=  0.1000  0.1000  0.0000 (reduced coord)
 -60.83052  -37.33168  -37.16008  -37.09317
 kpt#  19, nband=  4, wtk=  1.00000, kpt=  0.0667  0.0667  0.0000 (reduced coord)
 -60.84514  -37.34002  -37.11211  -37.07942
 kpt#  20, nband=  4, wtk=  1.00000, kpt=  0.0333  0.0333  0.0000 (reduced coord)
 -60.84779  -37.34564  -37.07969  -37.07119
 kpt#  21, nband=  4, wtk=  1.00000, kpt=  0.0000  0.0000  0.0000 (reduced coord)
 -60.86925  -37.34772  -37.06867  -37.06855

== END DATASET(S) ==============================================================

 -outvars: echo values of variables after computation  --------
            acell      5.9526373186E+00  5.9526373186E+00  3.7794522658E+01 Bohr
              amu      9.59400000E+01  3.20660000E+01
      chksymbreak           0
             ecut      1.20000000E+01 Hartree
           enunit1          0
           enunit2          1
           etotal1    -9.1852535751E+01
            fcart1    -2.6875204325E-07  1.6429477868E-06 -7.3268886865E-05
                      -6.5770170021E-07 -2.8166101117E-06  6.7808099205E-02
                       9.2645374346E-07  1.1736623250E-06 -6.7734830318E-02
-          fftalg         512
           getden1          0
           getden2         -1
             iscf1          7
             iscf2         -2
           istwfk1       4    0    0    5    0    0    0    0    0    0
                         0    0    0    0    0    0    8    0    0    9
           istwfk2       2    0    0    0    0    0    0    0    0    0
                         0    0    0    0    0    0    0    0    0    0
                         2
              ixc          11
           jdtset        1    2
              kpt1     0.00000000E+00  0.00000000E+00  5.00000000E-01
                       1.66666667E-01  0.00000000E+00  5.00000000E-01
                       3.33333333E-01  0.00000000E+00  5.00000000E-01
                       5.00000000E-01  0.00000000E+00  5.00000000E-01
                       0.00000000E+00  1.66666667E-01  5.00000000E-01
                       1.66666667E-01  1.66666667E-01  5.00000000E-01
                       3.33333333E-01  1.66666667E-01  5.00000000E-01
                       5.00000000E-01  1.66666667E-01  5.00000000E-01
                      -3.33333333E-01  1.66666667E-01  5.00000000E-01
                      -1.66666667E-01  1.66666667E-01  5.00000000E-01
                       0.00000000E+00  3.33333333E-01  5.00000000E-01
                       1.66666667E-01  3.33333333E-01  5.00000000E-01
                       3.33333333E-01  3.33333333E-01  5.00000000E-01
                       5.00000000E-01  3.33333333E-01  5.00000000E-01
                      -3.33333333E-01  3.33333333E-01  5.00000000E-01
                      -1.66666667E-01  3.33333333E-01  5.00000000E-01
                       0.00000000E+00  5.00000000E-01  5.00000000E-01
                       1.66666667E-01  5.00000000E-01  5.00000000E-01
                       3.33333333E-01  5.00000000E-01  5.00000000E-01
                       5.00000000E-01  5.00000000E-01  5.00000000E-01
              kpt2     0.00000000E+00  0.00000000E+00  0.00000000E+00
                       3.33333333E-02  3.33333333E-02  0.00000000E+00
                       6.66666667E-02  6.66666667E-02  0.00000000E+00
                       1.00000000E-01  1.00000000E-01  0.00000000E+00
                       1.33333333E-01  1.33333333E-01  0.00000000E+00
                       1.66666667E-01  1.66666667E-01  0.00000000E+00
                       2.00000000E-01  2.00000000E-01  0.00000000E+00
                       2.33333333E-01  2.33333333E-01  0.00000000E+00
                       2.66666667E-01  2.66666667E-01  0.00000000E+00
                       3.00000000E-01  3.00000000E-01  0.00000000E+00
                       3.33333333E-01  3.33333333E-01  0.00000000E+00
                       3.00000000E-01  3.00000000E-01  0.00000000E+00
                       2.66666667E-01  2.66666667E-01  0.00000000E+00
                       2.33333333E-01  2.33333333E-01  0.00000000E+00
                       2.00000000E-01  2.00000000E-01  0.00000000E+00
                       1.66666667E-01  1.66666667E-01  0.00000000E+00
                       1.33333333E-01  1.33333333E-01  0.00000000E+00
                       1.00000000E-01  1.00000000E-01  0.00000000E+00
                       6.66666667E-02  6.66666667E-02  0.00000000E+00
                       3.33333333E-02  3.33333333E-02  0.00000000E+00
                       0.00000000E+00  0.00000000E+00  0.00000000E+00
           kptopt1          1
           kptopt2         -2
         kptrlatt        6    0    0      0    6    0      0    0    1
          kptrlen1     3.57158239E+01
          kptrlen2     3.00000000E+01
P           mkmem1         20
P           mkmem2         21
            natom           3
            nband1         14
            nband2          4
           nbdbuf1          0
           nbdbuf2          2
           ndtset           2
           ndivsm1          0
           ndivsm2         10
            ngfft          20      20     120
             nkpt1         20
             nkpt2         21
            nstep          10
             nsym           1
           ntypat           2
              occ      2.000000  2.000000  2.000000  2.000000  2.000000  2.000000
                       2.000000  2.000000  2.000000  2.000000  2.000000  2.000000
                       2.000000  0.000000
            rprim      5.0000000000E-01 -8.6602540378E-01  0.0000000000E+00
                       5.0000000000E-01  8.6602540378E-01  0.0000000000E+00
                       0.0000000000E+00  0.0000000000E+00  1.0000000000E+00
           shiftk1     0.00000000E+00  0.00000000E+00  5.00000000E-01
           shiftk2     5.00000000E-01  5.00000000E-01  5.00000000E-01
          spgroup           1
           strten1     7.9250146425E-04  7.9239841874E-04  1.1123813054E-03
                       2.4829772281E-08 -3.7324020753E-08  3.6894322083E-08
           toldfe1     1.00000000E-06 Hartree
           toldfe2     0.00000000E+00 Hartree
           tolwfr1     0.00000000E+00
           tolwfr2     1.00000000E-12
            typat      1  2  2
              wtk1       0.02778    0.05556    0.05556    0.02778    0.05556    0.05556
                         0.05556    0.05556    0.05556    0.05556    0.05556    0.05556
                         0.05556    0.05556    0.05556    0.05556    0.02778    0.05556
                         0.05556    0.02778
              wtk2       1.00000    1.00000    1.00000    1.00000    1.00000    1.00000
                         1.00000    1.00000    1.00000    1.00000    1.00000    1.00000
                         1.00000    1.00000    1.00000    1.00000    1.00000    1.00000
                         1.00000    1.00000    1.00000
           xangst      1.5750000000E+00  9.0932667397E-01  0.0000000000E+00
                       1.5750000000E+00 -9.0932667397E-01 -1.8388847000E+00
                       1.5750000000E+00 -9.0932667397E-01  1.8388847000E+00
            xcart      2.9763186593E+00  1.7183783791E+00  0.0000000000E+00
                       2.9763186593E+00 -1.7183783791E+00 -3.4749884730E+00
                       2.9763186593E+00 -1.7183783791E+00  3.4749884730E+00
             xred      3.3333333333E-01  6.6666666667E-01  0.0000000000E+00
                       6.6666666667E-01  3.3333333333E-01 -9.1944235000E-02
                       6.6666666667E-01  3.3333333333E-01  9.1944235000E-02
            znucl       42.00000   16.00000

- Timing analysis has been suppressed with timopt=0

 Suggested references for the acknowledgment of ABINIT usage.

 Calculation completed.
.Delivered   4 WARNINGs and  10 COMMENTs to log file.