.Version 9.10.3 of ABINIT

 ABINIT is a project of the Universite Catholique de Louvain,
 Corning Inc. and other collaborators, see ~abinit/doc/developers/contributors.txt .
 acknowledgments of the ABINIT effort.

.Starting date : Mon  5 May 2025.
- ( at 15h46 )

- input  file    -> mos2.abi
- output file    -> mos2.abo
- root for input  files -> mos2i
- root for output files -> mos2o

 Symmetries : space group P1 (#  1); Bravais aP (primitive triclinic)
     intxc =       0    ionmov =       0      iscf =       7    lmnmax =       6
     lnmax =       6     mgfft =     120  mpssoang =       3    mqgrid =    5894
     natom =       3  nloc_mem =       1    nspden =       1   nspinor =       1
    nsppol =       1      nsym =       1    n1xccc =    2501    ntypat =       2
    occopt =       1   xclevel =       2
-    mband =          14        mffmem =           1         mkmem =           2
       mpw =        2310          nfft =       48000          nkpt =           2
  Rough estimation (10% accuracy) of disk space for files :

------------- Echo of variables that govern the present computation ------------
-
- outvars: echo of selected default values
-   iomode0 =  0 , fftalg0 =512 , wfoptalg0 =  0
-
- outvars: echo of global parameters not present in the input file
-  max_nthreads =    0
-
 -outvars: echo values of preprocessed input variables --------
            acell      5.9526373186E+00  5.9526373186E+00  3.7794522658E+01 Bohr
              amu      9.59400000E+01  3.20660000E+01
      chksymbreak           0
           diemac      1.20000000E+01
             ecut      1.20000000E+01 Hartree
-          fftalg         512
           istwfk        2    0
              ixc          11
              kpt      0.00000000E+00  0.00000000E+00  0.00000000E+00
                       3.33333333E-01  0.00000000E+00  0.00000000E+00
         kptrlatt        3    0    0      0    1    0      0    0    1
          kptrlen      5.95263732E+00
P           mkmem           2
            natom           3
            nband          14
            ngfft          20      20     120
             nkpt           2
            nstep          10
             nsym           1
           ntypat           2
              occ      2.000000  2.000000  2.000000  2.000000  2.000000  2.000000
                       2.000000  2.000000  2.000000  2.000000  2.000000  2.000000
                       2.000000  0.000000
            rprim      5.0000000000E-01 -8.6602540378E-01  0.0000000000E+00
                       5.0000000000E-01  8.6602540378E-01  0.0000000000E+00
                       0.0000000000E+00  0.0000000000E+00  1.0000000000E+00
          spgroup           1
           toldfe      1.00000000E-06 Hartree
            typat      1  2  2
              wtk        0.33333    0.66667
           xangst      1.5750000000E+00  9.0932667397E-01  0.0000000000E+00
                       1.5750000000E+00 -9.0932667397E-01 -1.8388847000E+00
                       1.5750000000E+00 -9.0932667397E-01  1.8388847000E+00
            xcart      2.9763186593E+00  1.7183783791E+00  0.0000000000E+00
                       2.9763186593E+00 -1.7183783791E+00 -3.4749884730E+00
                       2.9763186593E+00 -1.7183783791E+00  3.4749884730E+00
             xred      3.3333333333E-01  6.6666666667E-01  0.0000000000E+00
                       6.6666666667E-01  3.3333333333E-01 -9.1944235000E-02
                       6.6666666667E-01  3.3333333333E-01  9.1944235000E-02
            znucl       42.00000   16.00000

 chkinp: Checking input parameters for consistency.

== DATASET  1 ==================================================================
-   mpi_nproc: 1, omp_nthreads: -1 (-1 if OMP is not activated)

--- !DatasetInfo
iteration_state: {dtset: 1, }
dimensions: {natom: 3, nkpt: 2, mband: 14, nsppol: 1, nspinor: 1, nspden: 1, mpw: 2310, }
cutoff_energies: {ecut:  12.0, pawecutdg:  -1.0, }
electrons: {nelect:   2.60000000E+01, charge:   0.00000000E+00, occopt:   1.00000000E+00, tsmear:   1.00000000E-02, }
meta: {optdriver: 0, ionmov: 0, optcell: 0, iscf: 7, paral_kgb: 0, }
...

 Real(R)+Recip(G) space primitive vectors, cartesian coordinates (Bohr,Bohr^-1):
 R(1)=  2.9763187 -5.1551351  0.0000000  G(1)=  0.1679928 -0.0969907  0.0000000
 R(2)=  2.9763187  5.1551351  0.0000000  G(2)=  0.1679928  0.0969907  0.0000000
 R(3)=  0.0000000  0.0000000 37.7945227  G(3)=  0.0000000  0.0000000  0.0264589
 Unit cell volume ucvol=  1.1597873E+03 bohr^3
 Angles (23,13,12)=  9.00000000E+01  9.00000000E+01  1.20000000E+02 degrees

 getcut: wavevector=  0.0000  0.0000  0.0000  ngfft=  20  20 120
         ecut(hartree)=     12.000   => boxcut(ratio)=   2.03609

--- Pseudopotential description ------------------------------------------------
- pspini: atom type   1  psp file is ./persudo/Mo.psp8
- pspatm: opening atomic psp file    ./persudo/Mo.psp8
- Mo    ONCVPSP-3.2.3.1  r_core=   1.45541   1.45541   1.35488
- 42.00000  14.00000    170510                znucl, zion, pspdat
    8   11    2    4       600   0.00000      pspcod,pspxc,lmax,lloc,mmax,r2well
    5.99000000000000    3.00000000000000    0.00000000000000   rchrg,fchrg,qchrg
     nproj     2     2     2
     extension_switch     1
  pspatm : epsatm=   15.95693586
         --- l  ekb(1:nproj) -->
             0   13.833287    1.350687
             1    8.015347    1.134034
             2    2.765699    0.969071
 pspatm: atomic psp has been read  and splines computed

- pspini: atom type   2  psp file is ./persudo/S.psp8
- pspatm: opening atomic psp file    ./persudo/S.psp8
- S     ONCVPSP-4.0.1  r_core=   1.45687   1.45687   1.45687
- 16.00000   6.00000    220131                znucl, zion, pspdat
    8   11    2    4       600   0.00000      pspcod,pspxc,lmax,lloc,mmax,r2well
    5.99000000000000    6.00000000000000    0.00000000000000   rchrg,fchrg,qchrg
     nproj     2     2     2
     extension_switch     1
  pspatm : epsatm=    9.04179351
         --- l  ekb(1:nproj) -->
             0    6.774234    0.542270
             1    3.022426    0.737017
             2   -5.033160   -1.531047
 pspatm: atomic psp has been read  and splines computed

   8.85053595E+02                                ecore*ucvol(ha*bohr**3)

_setup2: Arith. and geom. avg. npw (full set) are    2315.667    2315.653

--- !BeginCycle
iteration_state: {dtset: 1, }
solver: {iscf: 7, nstep: 10, nline: 4, wfoptalg: 0, }
tolerances: {toldfe: 1.00E-06, }
...

     iter   Etot(hartree)      deltaE(h)  residm     vres2
 ETOT  1  -90.319512161780    -9.032E+01 5.713E-02 1.383E+04
 ETOT  2  -84.206785358398     6.113E+00 1.164E-02 3.981E+04
 ETOT  3  -91.690586682742    -7.484E+00 5.598E-02 3.061E+02
 ETOT  4  -91.736159097049    -4.557E-02 2.113E-03 3.076E+02
 ETOT  5  -91.737848154934    -1.689E-03 4.265E-04 2.470E+02
 ETOT  6  -91.741048403222    -3.200E-03 6.329E-04 1.768E+02
 ETOT  7  -91.751720540739    -1.067E-02 2.493E-04 3.616E+01
 ETOT  8  -91.751841666642    -1.211E-04 4.128E-04 3.056E+01
 ETOT  9  -91.751918402931    -7.674E-05 1.183E-04 2.044E+01
 ETOT 10  -91.752253007740    -3.346E-04 2.215E-04 7.190E+00

 Cartesian components of stress tensor (hartree/bohr^3)
  sigma(1 1)=  6.70684306E-04  sigma(3 2)=  1.41847705E-06
  sigma(2 2)=  5.69466145E-04  sigma(3 1)= -3.21701413E-07
  sigma(3 3)=  1.17825566E-03  sigma(2 1)= -8.89773328E-05

 scprqt:  WARNING -
  nstep=   10 was not enough SCF cycles to converge;
  maximum energy difference=  3.346E-04 exceeds toldfe=  1.000E-06

--- !ResultsGS
iteration_state: {dtset: 1, }
comment   : Summary of ground state results
lattice_vectors:
- [  2.9763187,  -5.1551351,   0.0000000, ]
- [  2.9763187,   5.1551351,   0.0000000, ]
- [  0.0000000,   0.0000000,  37.7945227, ]
lattice_lengths: [   5.95264,    5.95264,   37.79452, ]
lattice_angles: [ 90.000,  90.000, 120.000, ] # degrees, (23, 13, 12)
lattice_volume:   1.1597873E+03
convergence: {deltae: -3.346E-04, res2:  7.190E+00, residm:  2.215E-04, diffor: null, }
etotal    :  -9.17522530E+01
entropy   :   0.00000000E+00
fermie    :  -8.15348836E-02
cartesian_stress_tensor: # hartree/bohr^3
- [  6.70684306E-04,  -8.89773328E-05,  -3.21701413E-07, ]
- [ -8.89773328E-05,   5.69466145E-04,   1.41847705E-06, ]
- [ -3.21701413E-07,   1.41847705E-06,   1.17825566E-03, ]
pressure_GPa:  -2.3717E+01
xred      :
- [  3.3333E-01,   6.6667E-01,   0.0000E+00, Mo]
- [  6.6667E-01,   3.3333E-01,  -9.1944E-02,  S]
- [  6.6667E-01,   3.3333E-01,   9.1944E-02,  S]
cartesian_forces: # hartree/bohr
- [ -1.49622814E-02,   8.72118097E-03,   8.90023063E-04, ]
- [  7.42172869E-03,  -4.36371260E-03,   7.74184225E-02, ]
- [  7.54055275E-03,  -4.35746837E-03,  -7.83084456E-02, ]
force_length_stats: {min:   1.73413092E-02, max:   7.87912439E-02, mean:   5.80094094E-02, }
...

 Integrated electronic density in atomic spheres:
 Atom  Sphere_radius  Integrated_density
    1        2.00000         10.44790586
    2        2.00000          3.84348091
    3        2.00000          3.83926958

 ----iterations are completed or convergence reached----

 Mean square residual over all n,k,spin=   81.481E-07; max=  22.145E-05
 reduced coordinates (array xred) for    3 atoms
       0.333333333333      0.666666666667      0.000000000000
       0.666666666667      0.333333333333     -0.091944235000
       0.666666666667      0.333333333333      0.091944235000
 rms dE/dt=  1.3878E+00; max dE/dt=  2.9611E+00; dE/dt below (all hartree)
    1       0.089443666496     -0.000251674195     -0.032160965797
    2      -0.044632675136      0.000580773425     -2.924515292553
    3      -0.044954143589      0.000194925312      2.961107351462

 cartesian coordinates (angstrom) at end:
    1      1.57500000000000     0.90932667396900     0.00000000000000
    2      1.57500000000000    -0.90932667396900    -1.83888470000000
    3      1.57500000000000    -0.90932667396900     1.83888470000000

 cartesian forces (hartree/bohr) at end:
    1     -0.01496228143863     0.00872118097311     0.00089002306337
    2      0.00742172868657    -0.00436371259970     0.07741842250766
    3      0.00754055275207    -0.00435746837341    -0.07830844557103
 frms,max,avg= 3.7381691E-02 7.8308446E-02  -2.133E-05 -2.157E-05 -3.908E-05 h/b

 cartesian forces (eV/Angstrom) at end:
    1     -0.76939138163729     0.44846111911014     0.04576682220691
    2      0.38164060151618    -0.22439110505460     3.98101501443131
    3      0.38775078012112    -0.22407001405554    -4.02678183663822
 frms,max,avg= 1.9222437E+00 4.0267818E+00  -1.097E-03 -1.109E-03 -2.010E-03 e/A
 length scales=  5.952637318590  5.952637318590 37.794522657713 bohr
              =  3.150000000000  3.150000000000 20.000000000000 angstroms
 prteigrs : about to open file mos2o_EIG
 Fermi (or HOMO) energy (hartree) =  -0.08153   Average Vxc (hartree)=  -0.15631
 Eigenvalues (hartree) for nkpt=   2  k points:
 kpt#   1, nband= 14, wtk=  0.33333, kpt=  0.0000  0.0000  0.0000 (reduced coord)
  -2.23463   -1.37343   -1.37026   -1.34909   -0.57222   -0.55169   -0.25140   -0.16351
  -0.11798   -0.11511   -0.09665   -0.08828   -0.08153    0.01384
 prteigrs : prtvol=0 or 1, do not print more k-points.

--- !EnergyTerms
iteration_state     : {dtset: 1, }
comment             : Components of total free energy in Hartree
kinetic             :  2.90691438374116E+01
hartree             :  2.65708160715498E+02
xc                  : -1.64046395238884E+01
Ewald energy        :  1.89573206011761E+02
psp_core            :  7.63117176066322E-01
local_psp           : -5.72446623882093E+02
non_local_psp       :  1.19853826575046E+01
total_energy        : -9.17522530077401E+01
total_energy_eV     : -2.49670577661346E+03
band_energy         : -1.69171973708952E+01
...

 Cartesian components of stress tensor (hartree/bohr^3)
  sigma(1 1)=  6.70684306E-04  sigma(3 2)=  1.41847705E-06
  sigma(2 2)=  5.69466145E-04  sigma(3 1)= -3.21701413E-07
  sigma(3 3)=  1.17825566E-03  sigma(2 1)= -8.89773328E-05

-Cartesian components of stress tensor (GPa)         [Pressure= -2.3717E+01 GPa]
- sigma(1 1)=  1.97322102E+01  sigma(3 2)=  4.17330285E-02
- sigma(2 2)=  1.67542696E+01  sigma(3 1)= -9.46478076E-03
- sigma(3 3)=  3.46654724E+01  sigma(2 1)= -2.61780307E+00

== END DATASET(S) ==============================================================

 -outvars: echo values of variables after computation  --------
            acell      5.9526373186E+00  5.9526373186E+00  3.7794522658E+01 Bohr
              amu      9.59400000E+01  3.20660000E+01
      chksymbreak           0
           diemac      1.20000000E+01
             ecut      1.20000000E+01 Hartree
           etotal     -9.1752253008E+01
            fcart     -1.4962281439E-02  8.7211809731E-03  8.9002306337E-04
                       7.4217286866E-03 -4.3637125997E-03  7.7418422508E-02
                       7.5405527521E-03 -4.3574683734E-03 -7.8308445571E-02
-          fftalg         512
           istwfk        2    0
              ixc          11
              kpt      0.00000000E+00  0.00000000E+00  0.00000000E+00
                       3.33333333E-01  0.00000000E+00  0.00000000E+00
         kptrlatt        3    0    0      0    1    0      0    0    1
          kptrlen      5.95263732E+00
P           mkmem           2
            natom           3
            nband          14
            ngfft          20      20     120
             nkpt           2
            nstep          10
             nsym           1
           ntypat           2
              occ      2.000000  2.000000  2.000000  2.000000  2.000000  2.000000
                       2.000000  2.000000  2.000000  2.000000  2.000000  2.000000
                       2.000000  0.000000
            rprim      5.0000000000E-01 -8.6602540378E-01  0.0000000000E+00
                       5.0000000000E-01  8.6602540378E-01  0.0000000000E+00
                       0.0000000000E+00  0.0000000000E+00  1.0000000000E+00
          spgroup           1
           strten      6.7068430600E-04  5.6946614462E-04  1.1782556575E-03
                       1.4184770455E-06 -3.2170141340E-07 -8.8977332824E-05
           toldfe      1.00000000E-06 Hartree
            typat      1  2  2
              wtk        0.33333    0.66667
           xangst      1.5750000000E+00  9.0932667397E-01  0.0000000000E+00
                       1.5750000000E+00 -9.0932667397E-01 -1.8388847000E+00
                       1.5750000000E+00 -9.0932667397E-01  1.8388847000E+00
            xcart      2.9763186593E+00  1.7183783791E+00  0.0000000000E+00
                       2.9763186593E+00 -1.7183783791E+00 -3.4749884730E+00
                       2.9763186593E+00 -1.7183783791E+00  3.4749884730E+00
             xred      3.3333333333E-01  6.6666666667E-01  0.0000000000E+00
                       6.6666666667E-01  3.3333333333E-01 -9.1944235000E-02
                       6.6666666667E-01  3.3333333333E-01  9.1944235000E-02
            znucl       42.00000   16.00000

- Timing analysis has been suppressed with timopt=0

 Suggested references for the acknowledgment of ABINIT usage.

 Calculation completed.
.Delivered   2 WARNINGs and   3 COMMENTs to log file.