.Version 9.10.3 of ABINIT

 ABINIT is a project of the Universite Catholique de Louvain,
 Corning Inc. and other collaborators, see ~abinit/doc/developers/contributors.txt .
 acknowledgments of the ABINIT effort.

.Starting date : Thu  1 May 2025.
- ( at 19h00 )

- input  file    -> mos2.abi
- output file    -> mos2.abo
- root for input  files -> mos2i
- root for output files -> mos2o

 Symmetries : space group P-3 m 1 (#164); Bravais hP (primitive hexag.)
     intxc =       0    ionmov =       0      iscf =       7    lmnmax =       6
     lnmax =       6     mgfft =     120  mpssoang =       3    mqgrid =    5894
     natom =       3  nloc_mem =       1    nspden =       1   nspinor =       1
    nsppol =       1      nsym =      12    n1xccc =    2501    ntypat =       2
    occopt =       1   xclevel =       2
-    mband =          14        mffmem =           1         mkmem =           7
       mpw =        2324          nfft =       48000          nkpt =           7
  Rough estimation (10% accuracy) of disk space for files :

------------- Echo of variables that govern the present computation ------------
-
- outvars: echo of selected default values
-   iomode0 =  0 , fftalg0 =512 , wfoptalg0 =  0
-
- outvars: echo of global parameters not present in the input file
-  max_nthreads =    0
-
 -outvars: echo values of preprocessed input variables --------
            acell      5.9526373186E+00  5.9526373186E+00  3.7794522658E+01 Bohr
              amu      9.59400000E+01  3.20660000E+01
           diemac      1.20000000E+01
             ecut      1.20000000E+01 Hartree
-          fftalg         512
           istwfk        2    0    0    3    0    0    0
              ixc          11
              kpt      0.00000000E+00  0.00000000E+00  0.00000000E+00
                       1.66666667E-01  0.00000000E+00  0.00000000E+00
                       3.33333333E-01  0.00000000E+00  0.00000000E+00
                       5.00000000E-01  0.00000000E+00  0.00000000E+00
                       1.66666667E-01  1.66666667E-01  0.00000000E+00
                       3.33333333E-01  1.66666667E-01  0.00000000E+00
                       3.33333333E-01  3.33333333E-01  0.00000000E+00
         kptrlatt        6    0    0      0    6    0      0    0    1
          kptrlen      3.57158239E+01
P           mkmem           7
            natom           3
            nband          14
            ngfft          20      20     120
             nkpt           7
            nstep          10
             nsym          12
           ntypat           2
              occ      2.000000  2.000000  2.000000  2.000000  2.000000  2.000000
                       2.000000  2.000000  2.000000  2.000000  2.000000  2.000000
                       2.000000  0.000000
            rprim      5.0000000000E-01 -8.6602540378E-01  0.0000000000E+00
                       5.0000000000E-01  8.6602540378E-01  0.0000000000E+00
                       0.0000000000E+00  0.0000000000E+00  1.0000000000E+00
          spgroup         164
           symrel      1  0  0   0  1  0   0  0  1      -1  0  0   0 -1  0   0  0 -1
                      -1  0  0   1  1  0   0  0  1       1  0  0  -1 -1  0   0  0 -1
                       0  1  0  -1 -1  0   0  0  1       0 -1  0   1  1  0   0  0 -1
                       0 -1  0  -1  0  0   0  0  1       0  1  0   1  0  0   0  0 -1
                      -1 -1  0   1  0  0   0  0  1       1  1  0  -1  0  0   0  0 -1
                       1  1  0   0 -1  0   0  0  1      -1 -1  0   0  1  0   0  0 -1
           toldfe      1.00000000E-06 Hartree
            typat      1  2  2
              wtk        0.02778    0.16667    0.16667    0.08333    0.16667    0.33333
                         0.05556
           xangst      0.0000000000E+00  0.0000000000E+00  1.0000000000E+01
                       1.5750000000E+00  9.0932667397E-01  1.0919440000E+01
                       1.5750000000E+00 -9.0932667397E-01  9.0805600000E+00
            xcart      0.0000000000E+00  0.0000000000E+00  1.8897261329E+01
                       2.9763186593E+00  1.7183783791E+00  2.0634751124E+01
                       2.9763186593E+00 -1.7183783791E+00  1.7159771533E+01
             xred      0.0000000000E+00  0.0000000000E+00  5.0000000000E-01
                       3.3333333333E-01  6.6666666667E-01  5.4597200000E-01
                       6.6666666667E-01  3.3333333333E-01  4.5402800000E-01
            znucl       42.00000   16.00000

 chkinp: Checking input parameters for consistency.

== DATASET  1 ==================================================================
-   mpi_nproc: 1, omp_nthreads: -1 (-1 if OMP is not activated)

--- !DatasetInfo
iteration_state: {dtset: 1, }
dimensions: {natom: 3, nkpt: 7, mband: 14, nsppol: 1, nspinor: 1, nspden: 1, mpw: 2324, }
cutoff_energies: {ecut:  12.0, pawecutdg:  -1.0, }
electrons: {nelect:   2.60000000E+01, charge:   0.00000000E+00, occopt:   1.00000000E+00, tsmear:   1.00000000E-02, }
meta: {optdriver: 0, ionmov: 0, optcell: 0, iscf: 7, paral_kgb: 0, }
...

 Real(R)+Recip(G) space primitive vectors, cartesian coordinates (Bohr,Bohr^-1):
 R(1)=  2.9763187 -5.1551351  0.0000000  G(1)=  0.1679928 -0.0969907  0.0000000
 R(2)=  2.9763187  5.1551351  0.0000000  G(2)=  0.1679928  0.0969907  0.0000000
 R(3)=  0.0000000  0.0000000 37.7945227  G(3)=  0.0000000  0.0000000  0.0264589
 Unit cell volume ucvol=  1.1597873E+03 bohr^3
 Angles (23,13,12)=  9.00000000E+01  9.00000000E+01  1.20000000E+02 degrees

 getcut: wavevector=  0.0000  0.0000  0.0000  ngfft=  20  20 120
         ecut(hartree)=     12.000   => boxcut(ratio)=   2.03609

--- Pseudopotential description ------------------------------------------------
- pspini: atom type   1  psp file is ./persudo/Mo.psp8
- pspatm: opening atomic psp file    ./persudo/Mo.psp8
- Mo    ONCVPSP-3.2.3.1  r_core=   1.45541   1.45541   1.35488
- 42.00000  14.00000    170510                znucl, zion, pspdat
    8   11    2    4       600   0.00000      pspcod,pspxc,lmax,lloc,mmax,r2well
    5.99000000000000    3.00000000000000    0.00000000000000   rchrg,fchrg,qchrg
     nproj     2     2     2
     extension_switch     1
  pspatm : epsatm=   15.95693586
         --- l  ekb(1:nproj) -->
             0   13.833287    1.350687
             1    8.015347    1.134034
             2    2.765699    0.969071
 pspatm: atomic psp has been read  and splines computed

- pspini: atom type   2  psp file is ./persudo/S.psp8
- pspatm: opening atomic psp file    ./persudo/S.psp8
- S     ONCVPSP-4.0.1  r_core=   1.45687   1.45687   1.45687
- 16.00000   6.00000    220131                znucl, zion, pspdat
    8   11    2    4       600   0.00000      pspcod,pspxc,lmax,lloc,mmax,r2well
    5.99000000000000    6.00000000000000    0.00000000000000   rchrg,fchrg,qchrg
     nproj     2     2     2
     extension_switch     1
  pspatm : epsatm=    9.04179351
         --- l  ekb(1:nproj) -->
             0    6.774234    0.542270
             1    3.022426    0.737017
             2   -5.033160   -1.531047
 pspatm: atomic psp has been read  and splines computed

   8.85053595E+02                                ecore*ucvol(ha*bohr**3)

_setup2: Arith. and geom. avg. npw (full set) are    2302.806    2302.749

--- !BeginCycle
iteration_state: {dtset: 1, }
solver: {iscf: 7, nstep: 10, nline: 4, wfoptalg: 0, }
tolerances: {toldfe: 1.00E-06, }
...

     iter   Etot(hartree)      deltaE(h)  residm     vres2
 ETOT  1  -90.677435395732    -9.068E+01 8.643E-02 4.432E+03
 ETOT  2  -90.171137746610     5.063E-01 3.072E-02 3.875E+03
 ETOT  3  -91.449864364312    -1.279E+00 1.566E-02 2.316E+02
 ETOT  4  -91.457951097861    -8.087E-03 1.886E-03 1.817E+02
 ETOT  5  -91.461420149892    -3.469E-03 2.803E-03 1.216E+02
 ETOT  6  -91.462436231905    -1.016E-03 1.837E-03 8.383E+01
 ETOT  7  -91.463708317596    -1.272E-03 2.421E-03 5.558E+01
 ETOT  8  -91.464535593168    -8.273E-04 1.076E-03 3.568E+01
 ETOT  9  -91.464896430148    -3.608E-04 1.161E-03 2.522E+01
 ETOT 10  -91.465346745595    -4.503E-04 4.164E-04 1.061E+01

 Cartesian components of stress tensor (hartree/bohr^3)
  sigma(1 1)= -6.66416758E-04  sigma(3 2)=  0.00000000E+00
  sigma(2 2)= -6.66416758E-04  sigma(3 1)=  0.00000000E+00
  sigma(3 3)= -1.70276633E-04  sigma(2 1)=  0.00000000E+00

 scprqt:  WARNING -
  nstep=   10 was not enough SCF cycles to converge;
  maximum energy difference=  4.503E-04 exceeds toldfe=  1.000E-06

--- !ResultsGS
iteration_state: {dtset: 1, }
comment   : Summary of ground state results
lattice_vectors:
- [  2.9763187,  -5.1551351,   0.0000000, ]
- [  2.9763187,   5.1551351,   0.0000000, ]
- [  0.0000000,   0.0000000,  37.7945227, ]
lattice_lengths: [   5.95264,    5.95264,   37.79452, ]
lattice_angles: [ 90.000,  90.000, 120.000, ] # degrees, (23, 13, 12)
lattice_volume:   1.1597873E+03
convergence: {deltae: -4.503E-04, res2:  1.061E+01, residm:  4.164E-04, diffor: null, }
etotal    :  -9.14653467E+01
entropy   :   0.00000000E+00
fermie    :  -3.00002336E-02
cartesian_stress_tensor: # hartree/bohr^3
- [ -6.66416758E-04,   0.00000000E+00,   0.00000000E+00, ]
- [  0.00000000E+00,  -6.66416758E-04,   0.00000000E+00, ]
- [  0.00000000E+00,   0.00000000E+00,  -1.70276633E-04, ]
pressure_GPa:   1.4741E+01
xred      :
- [  0.0000E+00,   0.0000E+00,   5.0000E-01, Mo]
- [  3.3333E-01,   6.6667E-01,   5.4597E-01,  S]
- [  6.6667E-01,   3.3333E-01,   4.5403E-01,  S]
cartesian_forces: # hartree/bohr
- [  0.00000000E+00,   0.00000000E+00,   0.00000000E+00, ]
- [ -1.15800298E-26,  -6.68573334E-27,   3.02968566E-01, ]
- [  1.15800298E-26,   6.68573334E-27,  -3.02968566E-01, ]
force_length_stats: {min:   0.00000000E+00, max:   3.02968566E-01, mean:   2.01979044E-01, }
...

 Integrated electronic density in atomic spheres:
 Atom  Sphere_radius  Integrated_density
    1        2.00000         11.21032435
    2        2.00000          4.53005188
    3        2.00000          4.53005188

 ----iterations are completed or convergence reached----

 Mean square residual over all n,k,spin=   52.314E-07; max=  41.645E-05
 reduced coordinates (array xred) for    3 atoms
       0.000000000000      0.000000000000      0.500000000000
       0.333333333333      0.666666666667      0.545972000000
       0.666666666667      0.333333333333      0.454028000000
 rms dE/dt=  5.3978E+00; max dE/dt=  1.1451E+01; dE/dt below (all hartree)
    1       0.000000000000      0.000000000000      0.000000000000
    2       0.000000000000      0.000000000000    -11.450552346391
    3       0.000000000000     -0.000000000000     11.450552346391

 cartesian coordinates (angstrom) at end:
    1      0.00000000000000     0.00000000000000    10.00000000000000
    2      1.57500000000000     0.90932667396900    10.91944000000000
    3      1.57500000000000    -0.90932667396900     9.08056000000000

 cartesian forces (hartree/bohr) at end:
    1      0.00000000000000     0.00000000000000     0.00000000000000
    2     -0.00000000000000    -0.00000000000000     0.30296856637383
    3      0.00000000000000     0.00000000000000    -0.30296856637383
 frms,max,avg= 1.4282075E-01 3.0296857E-01   0.000E+00  0.000E+00  0.000E+00 h/b

 cartesian forces (eV/Angstrom) at end:
    1      0.00000000000000     0.00000000000000     0.00000000000000
    2     -0.00000000000000    -0.00000000000000    15.57926876533300
    3      0.00000000000000     0.00000000000000   -15.57926876533300
 frms,max,avg= 7.3441377E+00 1.5579269E+01   0.000E+00  0.000E+00  0.000E+00 e/A
 length scales=  5.952637318590  5.952637318590 37.794522657713 bohr
              =  3.150000000000  3.150000000000 20.000000000000 angstroms
 prteigrs : about to open file mos2o_EIG
 Fermi (or HOMO) energy (hartree) =  -0.03000   Average Vxc (hartree)=  -0.13221
 Eigenvalues (hartree) for nkpt=   7  k points:
 kpt#   1, nband= 14, wtk=  0.02778, kpt=  0.0000  0.0000  0.0000 (reduced coord)
  -2.24222   -1.39213   -1.39213   -1.37722   -0.68373   -0.50837   -0.37737   -0.37737
  -0.32963   -0.13343   -0.13217   -0.13217   -0.06213   -0.06213
 prteigrs : prtvol=0 or 1, do not print more k-points.

--- !EnergyTerms
iteration_state     : {dtset: 1, }
comment             : Components of total free energy in Hartree
kinetic             :  3.14943371882361E+01
hartree             :  3.27118857734744E+02
xc                  : -1.71860301660708E+01
Ewald energy        :  2.52123660671583E+02
psp_core            :  7.63117176066322E-01
local_psp           : -6.98134898830960E+02
non_local_psp       :  1.23556094808058E+01
total_energy        : -9.14653467455951E+01
total_energy_eV     : -2.48889866018239E+03
band_energy         : -1.82213287884281E+01
...

 Cartesian components of stress tensor (hartree/bohr^3)
  sigma(1 1)= -6.66416758E-04  sigma(3 2)=  0.00000000E+00
  sigma(2 2)= -6.66416758E-04  sigma(3 1)=  0.00000000E+00
  sigma(3 3)= -1.70276633E-04  sigma(2 1)=  0.00000000E+00

-Cartesian components of stress tensor (GPa)         [Pressure=  1.4741E+01 GPa]
- sigma(1 1)= -1.96066546E+01  sigma(3 2)=  0.00000000E+00
- sigma(2 2)= -1.96066546E+01  sigma(3 1)=  0.00000000E+00
- sigma(3 3)= -5.00971066E+00  sigma(2 1)=  0.00000000E+00

== END DATASET(S) ==============================================================

 -outvars: echo values of variables after computation  --------
            acell      5.9526373186E+00  5.9526373186E+00  3.7794522658E+01 Bohr
              amu      9.59400000E+01  3.20660000E+01
           diemac      1.20000000E+01
             ecut      1.20000000E+01 Hartree
           etotal     -9.1465346746E+01
            fcart      0.0000000000E+00  0.0000000000E+00  0.0000000000E+00
                      -1.1580029829E-26 -6.6857333393E-27  3.0296856637E-01
                       1.1580029829E-26  6.6857333393E-27 -3.0296856637E-01
-          fftalg         512
           istwfk        2    0    0    3    0    0    0
              ixc          11
              kpt      0.00000000E+00  0.00000000E+00  0.00000000E+00
                       1.66666667E-01  0.00000000E+00  0.00000000E+00
                       3.33333333E-01  0.00000000E+00  0.00000000E+00
                       5.00000000E-01  0.00000000E+00  0.00000000E+00
                       1.66666667E-01  1.66666667E-01  0.00000000E+00
                       3.33333333E-01  1.66666667E-01  0.00000000E+00
                       3.33333333E-01  3.33333333E-01  0.00000000E+00
         kptrlatt        6    0    0      0    6    0      0    0    1
          kptrlen      3.57158239E+01
P           mkmem           7
            natom           3
            nband          14
            ngfft          20      20     120
             nkpt           7
            nstep          10
             nsym          12
           ntypat           2
              occ      2.000000  2.000000  2.000000  2.000000  2.000000  2.000000
                       2.000000  2.000000  2.000000  2.000000  2.000000  2.000000
                       2.000000  0.000000
            rprim      5.0000000000E-01 -8.6602540378E-01  0.0000000000E+00
                       5.0000000000E-01  8.6602540378E-01  0.0000000000E+00
                       0.0000000000E+00  0.0000000000E+00  1.0000000000E+00
          spgroup         164
           strten     -6.6641675779E-04 -6.6641675779E-04 -1.7027663306E-04
                       0.0000000000E+00  0.0000000000E+00  0.0000000000E+00
           symrel      1  0  0   0  1  0   0  0  1      -1  0  0   0 -1  0   0  0 -1
                      -1  0  0   1  1  0   0  0  1       1  0  0  -1 -1  0   0  0 -1
                       0  1  0  -1 -1  0   0  0  1       0 -1  0   1  1  0   0  0 -1
                       0 -1  0  -1  0  0   0  0  1       0  1  0   1  0  0   0  0 -1
                      -1 -1  0   1  0  0   0  0  1       1  1  0  -1  0  0   0  0 -1
                       1  1  0   0 -1  0   0  0  1      -1 -1  0   0  1  0   0  0 -1
           toldfe      1.00000000E-06 Hartree
            typat      1  2  2
              wtk        0.02778    0.16667    0.16667    0.08333    0.16667    0.33333
                         0.05556
           xangst      0.0000000000E+00  0.0000000000E+00  1.0000000000E+01
                       1.5750000000E+00  9.0932667397E-01  1.0919440000E+01
                       1.5750000000E+00 -9.0932667397E-01  9.0805600000E+00
            xcart      0.0000000000E+00  0.0000000000E+00  1.8897261329E+01
                       2.9763186593E+00  1.7183783791E+00  2.0634751124E+01
                       2.9763186593E+00 -1.7183783791E+00  1.7159771533E+01
             xred      0.0000000000E+00  0.0000000000E+00  5.0000000000E-01
                       3.3333333333E-01  6.6666666667E-01  5.4597200000E-01
                       6.6666666667E-01  3.3333333333E-01  4.5402800000E-01
            znucl       42.00000   16.00000

- Timing analysis has been suppressed with timopt=0

 Suggested references for the acknowledgment of ABINIT usage.

 Calculation completed.
.Delivered   2 WARNINGs and   4 COMMENTs to log file.