.Version 9.10.3 of ABINIT

 ABINIT is a project of the Universite Catholique de Louvain,
 Corning Inc. and other collaborators, see ~abinit/doc/developers/contributors.txt .
 acknowledgments of the ABINIT effort.

.Starting date : Wed  5 May 2025.
- ( at 16h45 )

- input  file    -> mos2_ecut.abi
- output file    -> mos2_ecut.abo
- root for input  files -> mos2_ecuti
- root for output files -> mos2_ecuto

 DATASET    1 : space group P1 (#  1); Bravais aP (primitive triclinic)
     intxc =       0    ionmov =       2      iscf =       7    lmnmax =       6
     lnmax =       6     mgfft =      80  mpssoang =       3    mqgrid =    3805
     natom =       3  nloc_mem =       1    nspden =       1   nspinor =       1
    nsppol =       1      nsym =       1    n1xccc =    2501    ntypat =       2
    occopt =       1   xclevel =       2
-    mband =          14        mffmem =           1         mkmem =           5
       mpw =         628          nfft =       11520          nkpt =           5
  Rough estimation (10% accuracy) of disk space for files :

[...]

 DATASET    4 : space group P1 (#  1); Bravais aP (primitive triclinic)
     intxc =       0    ionmov =       2      iscf =       7    lmnmax =       6
     lnmax =       6     mgfft =      80  mpssoang =       3    mqgrid =    3805
     natom =       3  nloc_mem =       1    nspden =       1   nspinor =       1
    nsppol =       1      nsym =       1    n1xccc =    2501    ntypat =       2
    occopt =       1   xclevel =       2
-    mband =          14        mffmem =           1         mkmem =           5
       mpw =         628          nfft =       11520          nkpt =           5
  Rough estimation (10% accuracy) of disk space for files :

------------- Echo of variables that govern the present computation ------------
-
- outvars: echo of selected default values
-   iomode0 =  0 , fftalg0 =512 , wfoptalg0 =  0
-
- outvars: echo of global parameters not present in the input file
-  max_nthreads =    0
-
 -outvars: echo values of preprocessed input variables --------
            acell      5.9526373186E+00  5.9526373186E+00  3.7794522658E+01 Bohr
              amu      9.59400000E+01  3.20660000E+01
      chksymbreak           0
             ecut      5.00000000E+00 Hartree
-          fftalg         512
           ionmov           2
           istwfk        0    0    0    0    9
              ixc          11
           jdtset        1    2    3    4
              kpt      1.66666667E-01  1.66666667E-01  5.00000000E-01
                       5.00000000E-01  1.66666667E-01  5.00000000E-01
                      -1.66666667E-01  1.66666667E-01  5.00000000E-01
                       1.66666667E-01  5.00000000E-01  5.00000000E-01
                       5.00000000E-01  5.00000000E-01  5.00000000E-01
         kptrlatt        3    0    0      0    3    0      0    0    1
          kptrlen      1.78579120E+01
P           mkmem           5
            natom           3
            nband          14
           ndtset           4
            ngfft          12      12      80
             nkpt           5
            nstep          10
             nsym           1
            ntime          10
           ntypat           2
              occ      2.000000  2.000000  2.000000  2.000000  2.000000  2.000000
                       2.000000  2.000000  2.000000  2.000000  2.000000  2.000000
                       2.000000  0.000000
        optforces           1
            rprim      5.0000000000E-01 -8.6602540378E-01  0.0000000000E+00
                       5.0000000000E-01  8.6602540378E-01  0.0000000000E+00
                       0.0000000000E+00  0.0000000000E+00  1.0000000000E+00
           shiftk      5.00000000E-01  5.00000000E-01  5.00000000E-01
          spgroup           1
           toldff      5.00000000E-05
           tolmxf      5.00000000E-04
            typat      1  2  2
              wtk        0.22222    0.22222    0.22222    0.22222    0.11111
           xangst      1.5750000000E+00  9.0932667397E-01  0.0000000000E+00
                       1.5750000000E+00 -9.0932667397E-01 -1.8388847000E+00
                       1.5750000000E+00 -9.0932667397E-01  1.8388847000E+00
            xcart      2.9763186593E+00  1.7183783791E+00  0.0000000000E+00
                       2.9763186593E+00 -1.7183783791E+00 -3.4749884730E+00
                       2.9763186593E+00 -1.7183783791E+00  3.4749884730E+00
             xred      3.3333333333E-01  6.6666666667E-01  0.0000000000E+00
                       6.6666666667E-01  3.3333333333E-01 -9.1944235000E-02
                       6.6666666667E-01  3.3333333333E-01  9.1944235000E-02
            znucl       42.00000   16.00000

 chkinp: Checking input parameters for consistency, jdtset=   1.

[...]

 chkinp: Checking input parameters for consistency, jdtset=   4.

== DATASET  1 ==================================================================
-   mpi_nproc: 1, omp_nthreads: -1 (-1 if OMP is not activated)

--- !DatasetInfo
iteration_state: {dtset: 1, }
dimensions: {natom: 3, nkpt: 5, mband: 14, nsppol: 1, nspinor: 1, nspden: 1, mpw: 628, }
cutoff_energies: {ecut:   5.0, pawecutdg:  -1.0, }
electrons: {nelect:   2.60000000E+01, charge:   0.00000000E+00, occopt:   1.00000000E+00, tsmear:   1.00000000E-02, }
meta: {optdriver: 0, ionmov: 2, optcell: 0, iscf: 7, paral_kgb: 0, }
...

 Real(R)+Recip(G) space primitive vectors, cartesian coordinates (Bohr,Bohr^-1):
 R(1)=  2.9763187 -5.1551351  0.0000000  G(1)=  0.1679928 -0.0969907  0.0000000
 R(2)=  2.9763187  5.1551351  0.0000000  G(2)=  0.1679928  0.0969907  0.0000000
 R(3)=  0.0000000  0.0000000 37.7945227  G(3)=  0.0000000  0.0000000  0.0264589
 Unit cell volume ucvol=  1.1597873E+03 bohr^3
 Angles (23,13,12)=  9.00000000E+01  9.00000000E+01  1.20000000E+02 degrees

 getcut: wavevector=  0.0000  0.0000  0.0000  ngfft=  12  12  80
         ecut(hartree)=      5.000   => boxcut(ratio)=   2.00273

--- Pseudopotential description ------------------------------------------------
- pspini: atom type   1  psp file is ./persudo/Mo.psp8
- pspatm: opening atomic psp file    ./persudo/Mo.psp8
- Mo    ONCVPSP-3.2.3.1  r_core=   1.45541   1.45541   1.35488
- 42.00000  14.00000    170510                znucl, zion, pspdat
    8   11    2    4       600   0.00000      pspcod,pspxc,lmax,lloc,mmax,r2well
    5.99000000000000    3.00000000000000    0.00000000000000   rchrg,fchrg,qchrg
     nproj     2     2     2
     extension_switch     1
  pspatm : epsatm=   15.95693586
         --- l  ekb(1:nproj) -->
             0   13.833287    1.350687
             1    8.015347    1.134034
             2    2.765699    0.969071
 pspatm: atomic psp has been read  and splines computed

- pspini: atom type   2  psp file is ./persudo/S.psp8
- pspatm: opening atomic psp file    ./persudo/S.psp8
- S     ONCVPSP-4.0.1  r_core=   1.45687   1.45687   1.45687
- 16.00000   6.00000    220131                znucl, zion, pspdat
    8   11    2    4       600   0.00000      pspcod,pspxc,lmax,lloc,mmax,r2well
    5.99000000000000    6.00000000000000    0.00000000000000   rchrg,fchrg,qchrg
     nproj     2     2     2
     extension_switch     1
  pspatm : epsatm=    9.04179351
         --- l  ekb(1:nproj) -->
             0    6.774234    0.542270
             1    3.022426    0.737017
             2   -5.033160   -1.531047
 pspatm: atomic psp has been read  and splines computed

   8.85053595E+02                                ecore*ucvol(ha*bohr**3)

_setup2: Arith. and geom. avg. npw (full set) are     618.667     618.519

=== [ionmov= 2] Broyden-Fletcher-Goldfard-Shanno method (forces)

--- Iteration: ( 1/10) Internal Cycle: (1/1)

---SELF-CONSISTENT-FIELD CONVERGENCE--------------------------------------------

--- !BeginCycle
iteration_state: {dtset: 1, itime: 1, icycle: 1, }
solver: {iscf: 7, nstep: 10, nline: 4, wfoptalg: 0, }
tolerances: {toldff: 5.00E-05, }
...

     iter   Etot(hartree)      deltaE(h)  residm     vres2    diffor    maxfor
 ETOT  1  -87.287730110514    -8.729E+01 1.989E-02 2.538E+03 8.232E-02 8.232E-02
 ETOT  2  -87.535728711239    -2.480E-01 6.521E-03 1.379E+03 5.300E-01 4.550E-01
 ETOT  3  -88.623533128822    -1.088E+00 8.686E-03 3.814E+02 5.076E-01 5.263E-02
 ETOT  4  -88.854490609785    -2.310E-01 1.171E-03 2.345E+01 1.196E-01 6.727E-02
 ETOT  5  -88.861035073998    -6.544E-03 2.006E-04 9.095E+00 7.076E-03 7.424E-02
 ETOT  6  -88.861263083059    -2.280E-04 2.085E-05 7.153E+00 2.764E-03 7.683E-02
 ETOT  7  -88.861317903309    -5.482E-05 1.424E-05 6.223E+00 3.436E-04 7.692E-02
 ETOT  8  -88.861393079287    -7.518E-05 1.928E-06 4.637E+00 7.414E-04 7.766E-02
 ETOT  9  -88.861483271541    -9.019E-05 1.786E-06 2.595E+00 1.595E-03 7.896E-02
 ETOT 10  -88.861494794295    -1.152E-05 3.911E-07 2.022E+00 4.418E-04 7.922E-02

 Cartesian components of stress tensor (hartree/bohr^3)
  sigma(1 1)=  3.96396736E-03  sigma(3 2)=  1.41239431E-08
  sigma(2 2)=  3.89867203E-03  sigma(3 1)=  1.30265218E-09
  sigma(3 3)=  4.22134238E-03  sigma(2 1)=  2.66238458E-09

 scprqt:  WARNING -
  nstep=   10 was not enough SCF cycles to converge;
  maximum force difference=  4.418E-04 exceeds toldff=  5.000E-05

--- !ResultsGS
iteration_state: {dtset: 1, itime: 1, icycle: 1, }
comment   : Summary of ground state results
lattice_vectors:
- [  2.9763187,  -5.1551351,   0.0000000, ]
- [  2.9763187,   5.1551351,   0.0000000, ]
- [  0.0000000,   0.0000000,  37.7945227, ]
lattice_lengths: [   5.95264,    5.95264,   37.79452, ]
lattice_angles: [ 90.000,  90.000, 120.000, ] # degrees, (23, 13, 12)
lattice_volume:   1.1597873E+03
convergence: {deltae: -1.152E-05, res2:  2.022E+00, residm:  3.911E-07, diffor:  4.418E-04, }
etotal    :  -8.88614948E+01
entropy   :   0.00000000E+00
fermie    :  -7.02243512E-02
cartesian_stress_tensor: # hartree/bohr^3
- [  3.96396736E-03,   2.66238458E-09,   1.30265218E-09, ]
- [  2.66238458E-09,   3.89867203E-03,   1.41239431E-08, ]
- [  1.30265218E-09,   1.41239431E-08,   4.22134238E-03, ]
pressure_GPa:  -1.1851E+02
xred      :
- [  3.3333E-01,   6.6667E-01,   0.0000E+00, Mo]
- [  6.6667E-01,   3.3333E-01,  -9.1944E-02,  S]
- [  6.6667E-01,   3.3333E-01,   9.1944E-02,  S]
cartesian_forces: # hartree/bohr
- [ -1.88329870E-06,   8.71852891E-03,   2.47153028E-04, ]
- [ -1.27438918E-06,  -4.35340445E-03,   7.89710500E-02, ]
- [  3.15768788E-06,  -4.36512446E-03,  -7.92182031E-02, ]
force_length_stats: {min:   8.72203156E-03, max:   7.93383767E-02, mean:   5.57171205E-02, }
...

 Integrated electronic density in atomic spheres:
 Atom  Sphere_radius  Integrated_density
    1        2.00000          9.70170227
    2        2.00000          3.79658888
    3        2.00000          3.79564071

---OUTPUT-----------------------------------------------------------------------

 Cartesian coordinates (xcart) [bohr]
  2.97631865929489E+00  1.71837837912920E+00  0.00000000000000E+00
  2.97631865929489E+00 -1.71837837912920E+00 -3.47498847295358E+00
  2.97631865929489E+00 -1.71837837912920E+00  3.47498847295358E+00
 Reduced coordinates (xred)
  3.33333333333333E-01  6.66666666666667E-01  0.00000000000000E+00
  6.66666666666667E-01  3.33333333333333E-01 -9.19442350000000E-02
[...]

 ----iterations are completed or convergence reached----

 Mean square residual over all n,k,spin=   44.683E-13; max=  90.623E-12
 reduced coordinates (array xred) for    3 atoms
       0.331220384706      0.668779769733      0.000000129759
       0.667722549386      0.332277330690     -0.082172347728
       0.667723732574      0.332276232910      0.082172217969
 rms dE/dt=  4.9445E-03; max dE/dt=  9.2531E-03; dE/dt below (all hartree)
    1       0.001138016707     -0.001136916531      0.000184558058
    2       0.003289070939     -0.003289822643      0.009253084846
    3       0.003297607501     -0.003298137478     -0.009401961468

 cartesian coordinates (angstrom) at end:
    1      1.57500024324178     0.92085525856144     0.00000259518675
    2      1.57499981112010    -0.91508785504714    -1.64344695456602
    3      1.57499994563812    -0.91509407748330     1.64344435937927

 cartesian forces (hartree/bohr) at end:
    1     -0.00000019498534    -0.00027884080165    -0.00000456849919
    2      0.00000011611696     0.00013860318673    -0.00024451138377
    3      0.00000007886838     0.00014023761493     0.00024907988296
 frms,max,avg= 1.6278041E-04 2.7884080E-04   1.016E-08  4.995E-04 -3.147E-07 h/b

 cartesian forces (eV/Angstrom) at end:
    1     -0.00001002654851    -0.01433856932323    -0.00023492165393
    2      0.00000597097360     0.00712726182658    -0.01257327982740
    3      0.00000405557491     0.00721130749666     0.01280820148133
 frms,max,avg= 8.3705046E-03 1.4338569E-02   5.226E-07  2.568E-02 -1.618E-05 e/A
 length scales=  5.952637318590  5.952637318590 37.794522657713 bohr
              =  3.150000000000  3.150000000000 20.000000000000 angstroms
 prteigrs : about to open file mos2_ecuto_DS1_EIG
 Fermi (or HOMO) energy (hartree) =  -0.07960   Average Vxc (hartree)=  -0.16494
 Eigenvalues (hartree) for nkpt=   5  k points:
 kpt#   1, nband= 14, wtk=  0.22222, kpt=  0.1667  0.1667  0.5000 (reduced coord)
  -2.42609   -1.62247   -1.60328   -1.59687   -0.51163   -0.48498   -0.26454   -0.22029
  -0.21021   -0.19798   -0.15147   -0.12032   -0.10240    0.00917
 prteigrs : prtvol=0 or 1, do not print more k-points.

--- !EnergyTerms
iteration_state     : {dtset: 1, itime: 7, icycle: 1, }
comment             : Components of total free energy in Hartree
kinetic             :  2.53417132403628E+01
hartree             :  2.73593639610318E+02
xc                  : -1.57972049228756E+01
Ewald energy        :  2.02989954317272E+02
psp_core            :  7.63117176066322E-01
local_psp           : -5.87426990974964E+02
non_local_psp       :  1.16423305751899E+01
total_energy        : -8.88934409786304E+01
total_energy_eV     : -2.41891354510577E+03
band_energy         : -1.90202412729491E+01
...

 rms coord change=  4.7653E-03   atom, delta coord (reduced):
     1       -0.002112948627      0.002113103067      0.000000129759
     2        0.001055882720     -0.001056002643      0.009771887272
     3        0.001057065908     -0.001057100423     -0.009772017031

[...]

-Cartesian components of stress tensor (GPa)         [Pressure= -1.1289E+02 GPa]
- sigma(1 1)=  1.13211030E+02  sigma(3 2)= -8.47368788E-05
- sigma(2 2)=  1.11494827E+02  sigma(3 1)=  2.14918602E-06
- sigma(3 3)=  1.13976123E+02  sigma(2 1)= -3.21292697E-06

[...]

== DATASET  4 ==================================================================
-   mpi_nproc: 1, omp_nthreads: -1 (-1 if OMP is not activated)

--- !DatasetInfo
iteration_state: {dtset: 4, }
dimensions: {natom: 3, nkpt: 5, mband: 14, nsppol: 1, nspinor: 1, nspden: 1, mpw: 628, }
cutoff_energies: {ecut:   5.0, pawecutdg:  -1.0, }
electrons: {nelect:   2.60000000E+01, charge:   0.00000000E+00, occopt:   1.00000000E+00, tsmear:   1.00000000E-02, }
meta: {optdriver: 0, ionmov: 2, optcell: 0, iscf: 7, paral_kgb: 0, }
...

 Real(R)+Recip(G) space primitive vectors, cartesian coordinates (Bohr,Bohr^-1):
 R(1)=  2.9763187 -5.1551351  0.0000000  G(1)=  0.1679928 -0.0969907  0.0000000
 R(2)=  2.9763187  5.1551351  0.0000000  G(2)=  0.1679928  0.0969907  0.0000000
 R(3)=  0.0000000  0.0000000 37.7945227  G(3)=  0.0000000  0.0000000  0.0264589
 Unit cell volume ucvol=  1.1597873E+03 bohr^3
 Angles (23,13,12)=  9.00000000E+01  9.00000000E+01  1.20000000E+02 degrees

 getcut: wavevector=  0.0000  0.0000  0.0000  ngfft=  12  12  80
         ecut(hartree)=      5.000   => boxcut(ratio)=   2.00273

_setup2: Arith. and geom. avg. npw (full set) are     618.667     618.519

=== [ionmov= 2] Broyden-Fletcher-Goldfard-Shanno method (forces)

[...]

 scprqt:  WARNING -
  nstep=   10 was not enough SCF cycles to converge;
  maximum force difference=  2.732E-04 exceeds toldff=  5.000E-05

[...]

--- Iteration: ( 7/10) Internal Cycle: (1/1)

---SELF-CONSISTENT-FIELD CONVERGENCE--------------------------------------------

--- !BeginCycle
iteration_state: {dtset: 4, itime: 7, icycle: 1, }
solver: {iscf: 7, nstep: 10, nline: 4, wfoptalg: 0, }
tolerances: {toldff: 5.00E-05, }
...

     iter   Etot(hartree)      deltaE(h)  residm     vres2    diffor    maxfor
 ETOT  1  -88.893438109951    -8.889E+01 4.125E-08 5.810E-02 2.969E-04 1.500E-03
 ETOT  2  -88.893440116799    -2.007E-06 1.295E-08 1.182E-03 1.349E-03 4.747E-04
 ETOT  3  -88.893440276408    -1.596E-07 1.774E-08 4.809E-04 4.461E-04 3.020E-04
 ETOT  4  -88.893440955709    -6.793E-07 5.513E-09 9.115E-05 2.618E-04 2.910E-04
 ETOT  5  -88.893440976946    -2.124E-08 2.698E-10 3.579E-05 3.753E-05 2.773E-04
 ETOT  6  -88.893440978630    -1.685E-09 9.062E-11 2.558E-05 4.770E-06 2.788E-04

 At SCF step    6, forces are converged :
  for the second time, max diff in force=  4.770E-06 < toldff=  5.000E-05

[...]

--- !ResultsGS
iteration_state: {dtset: 4, itime: 7, icycle: 1, }
comment   : Summary of ground state results
lattice_vectors:
- [  2.9763187,  -5.1551351,   0.0000000, ]
- [  2.9763187,   5.1551351,   0.0000000, ]
- [  0.0000000,   0.0000000,  37.7945227, ]
lattice_lengths: [   5.95264,    5.95264,   37.79452, ]
lattice_angles: [ 90.000,  90.000, 120.000, ] # degrees, (23, 13, 12)
lattice_volume:   1.1597873E+03
convergence: {deltae: -1.685E-09, res2:  2.558E-05, residm:  9.062E-11, diffor:  4.770E-06, }
etotal    :  -8.88934410E+01
entropy   :   0.00000000E+00
fermie    :  -7.95950486E-02
cartesian_stress_tensor: # hartree/bohr^3
- [  3.84796534E-03,  -1.09205187E-10,   7.30493604E-11, ]
- [ -1.09205187E-10,   3.78963279E-03,  -2.88014846E-09, ]
- [  7.30493604E-11,  -2.88014846E-09,   3.87397035E-03, ]
pressure_GPa:  -1.1289E+02
xred      :
- [  3.3122E-01,   6.6878E-01,   1.2976E-07, Mo]
- [  6.6772E-01,   3.3228E-01,  -8.2172E-02,  S]
- [  6.6772E-01,   3.3228E-01,   8.2172E-02,  S]
cartesian_forces: # hartree/bohr
- [ -1.94985341E-07,  -2.78840802E-04,  -4.56849919E-06, ]
- [  1.16116959E-07,   1.38603187E-04,  -2.44511384E-04, ]
- [  7.88683818E-08,   1.40237615E-04,   2.49079883E-04, ]
force_length_stats: {min:   2.78878292E-04, max:   2.85845033E-04, mean:   2.81928931E-04, }
...

 Integrated electronic density in atomic spheres:
 Atom  Sphere_radius  Integrated_density
    1        2.00000          9.77400004
    2        2.00000          3.92893903
    3        2.00000          3.92894340

---OUTPUT-----------------------------------------------------------------------

 Cartesian coordinates (xcart) [bohr]
  2.97631911895524E+00  1.74016424670872E+00  4.90419221950184E-06
  2.97631830236360E+00 -1.72926543356885E+00 -3.10566465805474E+00
  2.97631855656582E+00 -1.72927719226907E+00  3.10565975386252E+00
 Reduced coordinates (xred)
  3.31220384706009E-01  6.68779769733219E-01  1.29759337455239E-07
  6.67722549386168E-01  3.32277330690085E-01 -8.21723477283011E-02
  6.67723732574489E-01  3.32276232910030E-01  8.21722179689637E-02
 Cartesian forces (fcart) [Ha/bohr]; max,rms= 2.78841E-04 1.62780E-04 (free atoms)
 -1.94985340674306E-07 -2.78840801654226E-04 -4.56849918781733E-06
  1.16116958886298E-07  1.38603186728153E-04 -2.44511383769299E-04
  7.88683817880081E-08  1.40237614926073E-04  2.49079882957116E-04
 Gradient of E wrt nuclear positions in reduced coordinates (gred)
 -1.43688167583729E-03  1.43804235285277E-03  1.72664246065705E-04
  7.14172556984804E-04 -7.14863759127592E-04  9.24119103393748E-03
  7.22709118852488E-04 -7.23178593725176E-04 -9.41385528000318E-03
 Total energy (etotal) [Ha]= -8.88934409786304E+01

 Difference of energy with previous step (new-old):
           Absolute (Ha)=-2.76452E-06
           Relative     =-3.10992E-08

 At Broyd/MD step   7, gradients are converged :
  max grad (force/stress) = 2.7884E-04 < tolmxf= 5.0000E-04 ha/bohr (free atoms)

 ----iterations are completed or convergence reached----

 Mean square residual over all n,k,spin=   44.683E-13; max=  90.623E-12
 reduced coordinates (array xred) for    3 atoms
       0.331220384706      0.668779769733      0.000000129759
       0.667722549386      0.332277330690     -0.082172347728
       0.667723732574      0.332276232910      0.082172217969
 rms dE/dt=  4.9445E-03; max dE/dt=  9.2531E-03; dE/dt below (all hartree)
    1       0.001138016707     -0.001136916531      0.000184558058
    2       0.003289070939     -0.003289822643      0.009253084846
    3       0.003297607501     -0.003298137478     -0.009401961468

 cartesian coordinates (angstrom) at end:
    1      1.57500024324178     0.92085525856144     0.00000259518675
    2      1.57499981112010    -0.91508785504714    -1.64344695456602
    3      1.57499994563812    -0.91509407748330     1.64344435937927

 cartesian forces (hartree/bohr) at end:
    1     -0.00000019498534    -0.00027884080165    -0.00000456849919
    2      0.00000011611696     0.00013860318673    -0.00024451138377
    3      0.00000007886838     0.00014023761493     0.00024907988296
 frms,max,avg= 1.6278041E-04 2.7884080E-04   1.016E-08  4.995E-04 -3.147E-07 h/b

 cartesian forces (eV/Angstrom) at end:
    1     -0.00001002654851    -0.01433856932323    -0.00023492165393
    2      0.00000597097360     0.00712726182658    -0.01257327982740
    3      0.00000405557491     0.00721130749666     0.01280820148133
 frms,max,avg= 8.3705046E-03 1.4338569E-02   5.226E-07  2.568E-02 -1.618E-05 e/A
 length scales=  5.952637318590  5.952637318590 37.794522657713 bohr
              =  3.150000000000  3.150000000000 20.000000000000 angstroms
 prteigrs : about to open file mos2_ecuto_DS4_EIG
 Fermi (or HOMO) energy (hartree) =  -0.07960   Average Vxc (hartree)=  -0.16494
 Eigenvalues (hartree) for nkpt=   5  k points:
 kpt#   1, nband= 14, wtk=  0.22222, kpt=  0.1667  0.1667  0.5000 (reduced coord)
  -2.42609   -1.62247   -1.60328   -1.59687   -0.51163   -0.48498   -0.26454   -0.22029
  -0.21021   -0.19798   -0.15147   -0.12032   -0.10240    0.00917
 prteigrs : prtvol=0 or 1, do not print more k-points.

--- !EnergyTerms
iteration_state     : {dtset: 4, itime: 7, icycle: 1, }
comment             : Components of total free energy in Hartree
kinetic             :  2.53417132403628E+01
hartree             :  2.73593639610318E+02
xc                  : -1.57972049228756E+01
Ewald energy        :  2.02989954317272E+02
psp_core            :  7.63117176066322E-01
local_psp           : -5.87426990974964E+02
non_local_psp       :  1.16423305751899E+01
total_energy        : -8.88934409786304E+01
total_energy_eV     : -2.41891354510577E+03
band_energy         : -1.90202412729491E+01
...

 rms coord change=  4.7653E-03   atom, delta coord (reduced):
     1       -0.002112948627      0.002113103067      0.000000129759
     2        0.001055882720     -0.001056002643      0.009771887272
     3        0.001057065908     -0.001057100423     -0.009772017031

 Cartesian components of stress tensor (hartree/bohr^3)
  sigma(1 1)=  3.84796534E-03  sigma(3 2)= -2.88014846E-09
  sigma(2 2)=  3.78963279E-03  sigma(3 1)=  7.30493604E-11
  sigma(3 3)=  3.87397035E-03  sigma(2 1)= -1.09205187E-10

-Cartesian components of stress tensor (GPa)         [Pressure= -1.1289E+02 GPa]
- sigma(1 1)=  1.13211030E+02  sigma(3 2)= -8.47368788E-05
- sigma(2 2)=  1.11494827E+02  sigma(3 1)=  2.14918602E-06
- sigma(3 3)=  1.13976123E+02  sigma(2 1)= -3.21292697E-06

== END DATASET(S) ==============================================================

 -outvars: echo values of variables after computation  --------
            acell      5.9526373186E+00  5.9526373186E+00  3.7794522658E+01 Bohr
              amu      9.59400000E+01  3.20660000E+01
      chksymbreak           0
             ecut      5.00000000E+00 Hartree
           etotal1    -8.8893440979E+01
           etotal2    -8.8893440979E+01
           etotal3    -8.8893440979E+01
           etotal4    -8.8893440979E+01
            fcart1    -1.9498534067E-07 -2.7884080165E-04 -4.5684991878E-06
                       1.1611695889E-07  1.3860318673E-04 -2.4451138377E-04
                       7.8868381788E-08  1.4023761493E-04  2.4907988296E-04
            fcart2    -1.9498534067E-07 -2.7884080165E-04 -4.5684991878E-06
                       1.1611695889E-07  1.3860318673E-04 -2.4451138377E-04
                       7.8868381788E-08  1.4023761493E-04  2.4907988296E-04
            fcart3    -1.9498534067E-07 -2.7884080165E-04 -4.5684991878E-06
                       1.1611695889E-07  1.3860318673E-04 -2.4451138377E-04
                       7.8868381788E-08  1.4023761493E-04  2.4907988296E-04
            fcart4    -1.9498534067E-07 -2.7884080165E-04 -4.5684991878E-06
                       1.1611695889E-07  1.3860318673E-04 -2.4451138377E-04
                       7.8868381788E-08  1.4023761493E-04  2.4907988296E-04
-          fftalg         512
           ionmov           2
           istwfk        0    0    0    0    9
              ixc          11
           jdtset        1    2    3    4
              kpt      1.66666667E-01  1.66666667E-01  5.00000000E-01
                       5.00000000E-01  1.66666667E-01  5.00000000E-01
                      -1.66666667E-01  1.66666667E-01  5.00000000E-01
                       1.66666667E-01  5.00000000E-01  5.00000000E-01
                       5.00000000E-01  5.00000000E-01  5.00000000E-01
         kptrlatt        3    0    0      0    3    0      0    0    1
          kptrlen      1.78579120E+01
P           mkmem           5
            natom           3
            nband          14
           ndtset           4
            ngfft          12      12      80
             nkpt           5
            nstep          10
             nsym           1
            ntime          10
           ntypat           2
              occ      2.000000  2.000000  2.000000  2.000000  2.000000  2.000000
                       2.000000  2.000000  2.000000  2.000000  2.000000  2.000000
                       2.000000  0.000000
        optforces           1
            rprim      5.0000000000E-01 -8.6602540378E-01  0.0000000000E+00
                       5.0000000000E-01  8.6602540378E-01  0.0000000000E+00
                       0.0000000000E+00  0.0000000000E+00  1.0000000000E+00
           shiftk      5.00000000E-01  5.00000000E-01  5.00000000E-01
          spgroup           1
           strten1     3.8479653446E-03  3.7896327903E-03  3.8739703481E-03
                      -2.8801484551E-09  7.3049360431E-11 -1.0920518657E-10
           strten2     3.8479653446E-03  3.7896327903E-03  3.8739703481E-03
                      -2.8801484551E-09  7.3049360431E-11 -1.0920518657E-10
           strten3     3.8479653446E-03  3.7896327903E-03  3.8739703481E-03
                      -2.8801484551E-09  7.3049360431E-11 -1.0920518657E-10
           strten4     3.8479653446E-03  3.7896327903E-03  3.8739703481E-03
                      -2.8801484551E-09  7.3049360431E-11 -1.0920518657E-10
           toldff      5.00000000E-05
           tolmxf      5.00000000E-04
            typat      1  2  2
              wtk        0.22222    0.22222    0.22222    0.22222    0.11111
           xangst      1.5750002432E+00  9.2085525856E-01  2.5951867491E-06
                       1.5749998111E+00 -9.1508785505E-01 -1.6434469546E+00
                       1.5749999456E+00 -9.1509407748E-01  1.6434443594E+00
            xcart      2.9763191190E+00  1.7401642467E+00  4.9041922195E-06
                       2.9763183024E+00 -1.7292654336E+00 -3.1056646581E+00
                       2.9763185566E+00 -1.7292771923E+00  3.1056597539E+00
             xred      3.3122038471E-01  6.6877976973E-01  1.2975933746E-07
                       6.6772254939E-01  3.3227733069E-01 -8.2172347728E-02
                       6.6772373257E-01  3.3227623291E-01  8.2172217969E-02
            znucl       42.00000   16.00000

- Timing analysis has been suppressed with timopt=0

 Suggested references for the acknowledgment of ABINIT usage.

 Calculation completed.
.Delivered  16 WARNINGs and  14 COMMENTs to log file.