.Version 9.10.3 of ABINIT

 ABINIT is a project of the Universite Catholique de Louvain,
 Corning Inc. and other collaborators, see ~abinit/doc/developers/contributors.txt .
 acknowledgments of the ABINIT effort.

.Starting date : Thu  1 May 2025.
- ( at 11h33 )

 === Build Information ===
  Version       : 9.10.3
  Build target  : x86_64_linux_intel2021.6
  Build date    : 20240126

 === Optimizations ===
  Debug level        : basic
  Optimization level : standard
  Architecture       : intel_xeon

 === Multicore ===
  Parallel build : /shared/ucl/apps/intel/2020/impi/2019.6.166/intel64
  Parallel I/O   :
  openMP support :
  GPU support    :

 === Connectors / Fallbacks ===
  LINALG flavor  : mkl
  FFT flavor     : dfti
  HDF5           : yes
  NetCDF         : yes
  NetCDF Fortran : yes
  Wannier90      : no

 === Experimental features ===
  Exports             :
  GW double-precision :

 Default optimizations:
   -O3

 Optimizations for 43_ptgroups:
   -O0

 CPP options activated during the build:

                  CC_INTEL                   CXX_GNU                  FC_INTEL

                 HAVE_DFTI HAVE_FC_ALLOCATABLE_DT...             HAVE_FC_ASYNC

  HAVE_FC_COMMAND_ARGUMENT      HAVE_FC_COMMAND_LINE        HAVE_FC_CONTIGUOUS

           HAVE_FC_CPUTIME              HAVE_FC_EXIT             HAVE_FC_FLUSH

             HAVE_FC_GAMMA   HAVE_FC_IEEE_ARITHMETIC   HAVE_FC_IEEE_EXCEPTIONS

             HAVE_FC_IOMSG     HAVE_FC_ISO_C_BINDING  HAVE_FC_ISO_FORTRAN_2008

        HAVE_FC_LONG_LINES        HAVE_FC_MOVE_ALLOC  HAVE_FC_ON_THE_FLY_SHAPE

           HAVE_FC_PRIVATE         HAVE_FC_PROTECTED           HAVE_FC_SHIFTLR

         HAVE_FC_STREAM_IO                 HAVE_HDF5             HAVE_HDF5_MPI

         HAVE_LINALG_AXPBY        HAVE_LINALG_GEMM3M         HAVE_LINALG_GEMMT

  HAVE_LINALG_MKL_IMATCOPY   HAVE_LINALG_MKL_OMATADD  HAVE_LINALG_MKL_OMATCOPY

                 HAVE_MPI2       HAVE_MPI_IALLGATHER       HAVE_MPI_IALLREDUCE

        HAVE_MPI_IALLTOALL       HAVE_MPI_IALLTOALLV           HAVE_MPI_IBCAST

         HAVE_MPI_IGATHERV        HAVE_MPI_INTEGER16               HAVE_MPI_IO

 HAVE_MPI_TYPE_CREATE_S...               HAVE_NETCDF       HAVE_NETCDF_FORTRAN

   HAVE_NETCDF_FORTRAN_MPI           HAVE_NETCDF_MPI             HAVE_OS_LINUX

         HAVE_TIMER_ABINIT

- input  file    -> tbase3_4.abi
- output file    -> tbase3_4.abo
- root for input  files -> tbase3_4i
- root for output files -> tbase3_4o

-instrng: 91 lines of input have been read from file tbase3_4.abi

 For atom type 1, psp file is /home/mmm1483/Scratch/abinit_code/basic1/persudo/Si.psp8
  read the values zionpsp=  4.0 , pspcod=   8 , lmax=   2

 inpspheads: deduce mpsang = 3, n1xccc = 2501.

 invars1m : enter jdtset= 1

 symlatt: the Bravais lattice is cF (face-centered cubic)
  xred   is defined in input file
 ingeo: takes atomic coordinates from input array xred

--- !COMMENT
src_file: m_ingeo.F90
src_line: 890
message: |
    The tolerance on symmetries =   1.000E-05 is bigger than 1.0e-8.
    In order to avoid spurious effects, the atomic coordinates have been
    symmetrized before storing them in the dataset internal variable.
    So, do not be surprised by the fact that your input variables (xcart, xred, ...)
    do not correspond exactly to the ones echoed by ABINIT, the latter being used to do the calculations.
    This is not a problem per se.
    Still, in order to avoid this symmetrization (e.g. for specific debugging/development), decrease tolsym to 1.0e-8 or lower,
    or (much preferred) use input primitive vectors that are accurate to better than 1.0e-8.
    This message will only be printed once, even if there are other datasets where tolsym is bigger than 1.0e-8.
...

 symlatt: the Bravais lattice is cF (face-centered cubic)

 symlatt: the Bravais lattice is cF (face-centered cubic)
 symspgr: spgroup= 227  Fd -3 m   (=Oh^7)
 symspgr: optical characteristics = isotropic

 invars1m : enter jdtset= 2

 symlatt: the Bravais lattice is cF (face-centered cubic)
  xred   is defined in input file
 ingeo: takes atomic coordinates from input array xred

 symlatt: the Bravais lattice is cF (face-centered cubic)

 symlatt: the Bravais lattice is cF (face-centered cubic)
 symspgr: spgroup= 227  Fd -3 m   (=Oh^7)
 symspgr: optical characteristics = isotropic
 invars2: take the default value of fband=  1.25000000E-01
 invars2: take the default value of fband=  1.25000000E-01
 LMac pawujat is:            0
 LMac pawujat is:            0
 For input ecut=  1.323000E+01 best grid ngfft=      24      24      24
       max ecut=  1.371408E+01

 ==== FFT mesh ====
  FFT mesh divisions ........................    24   24   24
  Augmented FFT divisions ...................    25   25   24
  FFT algorithm .............................   512
  FFT cache size ............................    16
 getmpw: optimal value of mpw= 608
 For input ecut=  1.323000E+01 best grid ngfft=      24      24      24
       max ecut=  1.371408E+01

 ==== FFT mesh ====
  FFT mesh divisions ........................    24   24   24
  Augmented FFT divisions ...................    25   25   24
  FFT algorithm .............................   512
  FFT cache size ............................    16
 getmpw: optimal value of mpw= 611

 DATASET    1 : space group Fd -3 m (#227); Bravais cF (face-center cubic)

 getdim_nloc: deduce lmnmax  =  18, lnmax  =   6,
                      lmnmaxso=  18, lnmaxso=   6.
     intxc =       0    ionmov =       2      iscf =       7    lmnmax =       6
     lnmax =       6     mgfft =      24  mpssoang =       3    mqgrid =    3001
     natom =       2  nloc_mem =       1    nspden =       1   nspinor =       1
    nsppol =       1      nsym =      48    n1xccc =    2501    ntypat =       1
    occopt =       1   xclevel =       2
-    mband =           5        mffmem =           1         mkmem =           2
       mpw =         608          nfft =       13824          nkpt =           2
  Rough estimation (10% accuracy) of disk space for files :

 The job will continue.

 DATASET    2 : space group Fd -3 m (#227); Bravais cF (face-center cubic)

 getdim_nloc: deduce lmnmax  =  18, lnmax  =   6,
                      lmnmaxso=  18, lnmaxso=   6.
     intxc =       0    ionmov =       2      iscf =       7    lmnmax =       6
     lnmax =       6     mgfft =      24  mpssoang =       3    mqgrid =    3001
     natom =       2  nloc_mem =       1    nspden =       1   nspinor =       1
    nsppol =       1      nsym =      48    n1xccc =    2501    ntypat =       1
    occopt =       1   xclevel =       2
-    mband =           5        mffmem =           1         mkmem =          10
       mpw =         611          nfft =       13824          nkpt =          10
  Rough estimation (10% accuracy) of disk space for files :

 The job will continue.
------------- Echo of variables that govern the present computation ------------
-
- outvars: echo of selected default values
-   iomode0 =  0 , fftalg0 =512 , wfoptalg0 =  0
-
- outvars: echo of global parameters not present in the input file
-  max_nthreads =    0
-
 -outvars: echo values of preprocessed input variables --------

 These variables are accessible in NetCDF format (tbase3_4o_OUT.nc)

            acell      1.0180000000E+01  1.0180000000E+01  1.0180000000E+01 Bohr
              amu      2.80855000E+01
           diemac      1.20000000E+01
          dilatmx      1.05000000E+00
             ecut      1.20000000E+01 Hartree
           ecutsm      5.00000000E-01 Hartree
-          fftalg         512
           getwfk          -1
           ionmov           2
              ixc          11
           jdtset        1    2
              kpt1    -2.50000000E-01  5.00000000E-01  0.00000000E+00
                      -2.50000000E-01  0.00000000E+00  0.00000000E+00
              kpt2    -1.25000000E-01 -2.50000000E-01  0.00000000E+00
                      -1.25000000E-01  5.00000000E-01  0.00000000E+00
                      -2.50000000E-01 -3.75000000E-01  0.00000000E+00
                      -1.25000000E-01 -3.75000000E-01  1.25000000E-01
                      -1.25000000E-01  2.50000000E-01  0.00000000E+00
                      -2.50000000E-01  3.75000000E-01  0.00000000E+00
                      -3.75000000E-01  5.00000000E-01  0.00000000E+00
                      -2.50000000E-01  5.00000000E-01  1.25000000E-01
                      -1.25000000E-01  0.00000000E+00  0.00000000E+00
                      -3.75000000E-01  0.00000000E+00  0.00000000E+00
         kptrlatt1       2   -2    2     -2    2    2     -2   -2    2
         kptrlatt2       4   -4    4     -4    4    4     -4   -4    4
          kptrlen1     2.03600000E+01
          kptrlen2     4.07200000E+01
P           mkmem1          2
P           mkmem2         10
            natom           2
            nband1          5
            nband2          5
           ndtset           2
            ngfft          24      24      24
             nkpt1          2
             nkpt2         10
            nstep          10
             nsym          48
            ntime          10
           ntypat           1
              occ1     2.000000  2.000000  2.000000  2.000000  0.000000
              occ2     2.000000  2.000000  2.000000  2.000000  0.000000
          optcell           1
            rprim      0.0000000000E+00  5.0000000000E-01  5.0000000000E-01
                       5.0000000000E-01  0.0000000000E+00  5.0000000000E-01
                       5.0000000000E-01  5.0000000000E-01  0.0000000000E+00
           shiftk      5.00000000E-01  5.00000000E-01  5.00000000E-01
          spgroup         227
           symrel      1  0  0   0  1  0   0  0  1      -1  0  0   0 -1  0   0  0 -1
                       0 -1  1   0 -1  0   1 -1  0       0  1 -1   0  1  0  -1  1  0
                      -1  0  0  -1  0  1  -1  1  0       1  0  0   1  0 -1   1 -1  0
                       0  1 -1   1  0 -1   0  0 -1       0 -1  1  -1  0  1   0  0  1
                      -1  0  0  -1  1  0  -1  0  1       1  0  0   1 -1  0   1  0 -1
                       0 -1  1   1 -1  0   0 -1  0       0  1 -1  -1  1  0   0  1  0
                       1  0  0   0  0  1   0  1  0      -1  0  0   0  0 -1   0 -1  0
                       0  1 -1   0  0 -1   1  0 -1       0 -1  1   0  0  1  -1  0  1
                      -1  0  1  -1  1  0  -1  0  0       1  0 -1   1 -1  0   1  0  0
                       0 -1  0   1 -1  0   0 -1  1       0  1  0  -1  1  0   0  1 -1
                       1  0 -1   0  0 -1   0  1 -1      -1  0  1   0  0  1   0 -1  1
                       0  1  0   0  0  1   1  0  0       0 -1  0   0  0 -1  -1  0  0
                       1  0 -1   0  1 -1   0  0 -1      -1  0  1   0 -1  1   0  0  1
                       0 -1  0   0 -1  1   1 -1  0       0  1  0   0  1 -1  -1  1  0
                      -1  0  1  -1  0  0  -1  1  0       1  0 -1   1  0  0   1 -1  0
                       0  1  0   1  0  0   0  0  1       0 -1  0  -1  0  0   0  0 -1
                       0  0 -1   0  1 -1   1  0 -1       0  0  1   0 -1  1  -1  0  1
[...]
 scprqt: <Vxc>= -3.3843925E-01 hartree

[...]

 Pulay update with  5 previous iterations:
 mixing of old trial potential: alpha(m:m-4)=   1.14     -0.152      0.186E-01 -0.250E-02  0.560E-03
{SCF_istep: 6 , Vnl|psi>: 233 , wall_time: '  0.05 [s] '} <<< TIME

 ITER STEP NUMBER     7
 Total charge density [el/Bohr^3]
)     Maximum=    8.3017E-02  at reduced coord.    0.1250    0.1250    0.6250
)     Minimum=    1.4237E-03  at reduced coord.    0.0000    0.0000    0.0000
   Integrated=    8.0000E+00
 ETOT  7  -8.4621588533634    -1.599E-14 1.100E-12 4.765E-15
 scprqt: <Vxc>= -3.3842909E-01 hartree

 At SCF step    7       vres2   =  4.76E-15 < tolvrs=  1.00E-14 =>converged.

 Ekinetic   = :     3.041607E+00 Ha ,    8.276632E+01 eV
 Evext_l    = :    -2.331906E+00 Ha ,   -6.345440E+01 eV
 Evext_nl   = :     1.148245E+00 Ha ,    3.124534E+01 eV
 Epsp_core  = :     5.415411E-01 Ha ,    1.473608E+01 eV
 Ehartree   = :     5.571058E-01 Ha ,    1.515962E+01 eV
 Exc_ks     = :    -3.079974E+00 Ha ,   -8.381036E+01 eV
 Enn        = :    -8.338777E+00 Ha ,   -2.269097E+02 eV
 Etot       = :    -8.462159E+00 Ha ,   -2.302671E+02 eV

[...]

 fftdatar_write: About to write data to: tbase3_4o_DS2_TIM4_DEN with iomode: IO_MODE_FORTRAN
 Integrated electronic density in atomic spheres:
 Atom  Sphere_radius  Integrated_density
    1        2.00000          1.79819328
    2        2.00000          1.79819328
 Write iteration in HIST netCDF file

---OUTPUT-----------------------------------------------------------------------

 Cartesian coordinates (xcart) [bohr]
 -3.39599106540003E-29  0.00000000000000E+00  3.39599106540003E-29
  2.58397516279670E+00  2.58397516279670E+00  2.58397516279670E+00
 Reduced coordinates (xred)
  6.57125330439413E-30  0.00000000000000E+00 -6.57125330439413E-30
  2.50000000000000E-01  2.50000000000000E-01  2.50000000000000E-01
 Cartesian forces (fcart) [Ha/bohr]; max,rms= 4.88463E-30 3.11779E-30 (free atoms)
  4.88463459914814E-30 -1.62821153304938E-30 -1.62821153304938E-30
 -4.88463459914814E-30  1.62821153304938E-30  1.62821153304938E-30
 Gradient of E wrt nuclear positions in reduced coordinates (gred)
  1.68290326447149E-29 -1.68290326447149E-29 -1.68290326447149E-29
 -1.68290326447149E-29  1.68290326447149E-29  1.68290326447149E-29
 Scale of Primitive Cell (acell) [bohr]
  1.03359006511868E+01  1.03359006511868E+01  1.03359006511868E+01
 Real space primitive translations (rprimd) [bohr]
  0.00000000000000E+00  5.16795032559340E+00  5.16795032559340E+00
  5.16795032559340E+00  0.00000000000000E+00  5.16795032559340E+00
  5.16795032559340E+00  5.16795032559340E+00  0.00000000000000E+00
 Unitary Cell Volume (ucvol) [Bohr^3]=  2.76048243049442E+02
 Angles (23,13,12)= [degrees]
  6.00000000000000E+01  6.00000000000000E+01  6.00000000000000E+01
 Lengths [Bohr]
  7.30858544012463E+00  7.30858544012463E+00  7.30858544012463E+00
 Stress tensor in cartesian coordinates (strten) [Ha/bohr^3]
 -2.21377392026819E-07  0.00000000000000E+00  0.00000000000000E+00
  0.00000000000000E+00 -2.21377392026385E-07  0.00000000000000E+00
  0.00000000000000E+00  0.00000000000000E+00 -2.21377392025952E-07
 Total energy (etotal) [Ha]= -8.46215885336344E+00

 Difference of energy with previous step (new-old):
           Absolute (Ha)=-1.44732E-06
           Relative     =-1.71034E-07

 At Broyd/MD step   4, gradients are converged :
  max grad (force/stress) = 2.2138E-05 < tolmxf= 5.0000E-05 ha/bohr (free atoms)

 ----iterations are completed or convergence reached----

 === Gap info ===
  >>>> For spin  1
   Minimum direct gap =   2.6564 [eV], located at k-point      :  -0.3750  0.0000  0.0000
   Fundamental gap    =   1.2167 [eV], Top of valence bands at :  -0.1250  0.0000  0.0000
                                       Bottom of conduction at :  -0.3750  0.5000  0.0000
 Mean square residual over all n,k,spin=   22.032E-15; max=  10.999E-13
  -0.1250 -0.2500  0.0000    1  1.11114E-16 kpt; spin; max resid(k); each band:
  5.36E-20 2.84E-20 2.07E-20 8.52E-20 1.11E-16
  -0.1250  0.5000  0.0000    1  1.07460E-15 kpt; spin; max resid(k); each band:
  2.50E-20 8.30E-20 6.09E-20 2.55E-20 1.07E-15
  -0.2500 -0.3750  0.0000    1  4.42908E-17 kpt; spin; max resid(k); each band:
  5.42E-20 1.38E-20 5.47E-20 4.91E-20 4.43E-17
  -0.1250 -0.3750  0.1250    1  1.09991E-12 kpt; spin; max resid(k); each band:
  3.46E-20 7.90E-20 1.51E-19 2.03E-20 1.10E-12
  -0.1250  0.2500  0.0000    1  2.50647E-16 kpt; spin; max resid(k); each band:
  4.45E-20 5.12E-20 6.37E-20 9.76E-21 2.51E-16
  -0.2500  0.3750  0.0000    1  1.96646E-19 kpt; spin; max resid(k); each band:
  1.47E-20 2.99E-20 5.99E-20 3.77E-20 1.97E-19
  -0.3750  0.5000  0.0000    1  7.90326E-17 kpt; spin; max resid(k); each band:
  3.63E-20 1.48E-20 6.76E-20 9.06E-21 7.90E-17
  -0.2500  0.5000  0.1250    1  3.41228E-17 kpt; spin; max resid(k); each band:
  3.55E-20 2.03E-20 7.36E-20 1.20E-19 3.41E-17
  -0.1250  0.0000  0.0000    1  1.17559E-16 kpt; spin; max resid(k); each band:
  2.49E-20 5.00E-20 5.26E-20 5.34E-20 1.18E-16
  -0.3750  0.0000  0.0000    1  8.01073E-20 kpt; spin; max resid(k); each band:
  4.24E-20 8.01E-20 1.41E-20 1.14E-20 7.97E-20

   outwf: writing wavefunctions to: tbase3_4o_DS2_WFK with iomode: IO_MODE_FORTRAN_MASTER
 prteigrs : about to open file tbase3_4o_DS2_EIG
 Fermi (or HOMO) energy (hartree) =   0.14278   Average Vxc (hartree)=  -0.33843
 Eigenvalues (hartree) for nkpt=  10  k points:
 kpt#   1, nband=  5, wtk=  0.09375, kpt= -0.1250 -0.2500  0.0000 (reduced coord)
  -0.25448    0.03509    0.10569    0.10801    0.23194
 kpt#   2, nband=  5, wtk=  0.09375, kpt= -0.1250  0.5000  0.0000 (reduced coord)
  -0.19436   -0.09177    0.07046    0.09672    0.23252
 kpt#   3, nband=  5, wtk=  0.09375, kpt= -0.2500 -0.3750  0.0000 (reduced coord)
  -0.21662   -0.02779    0.05691    0.07355    0.20358
 kpt#   4, nband=  5, wtk=  0.18750, kpt= -0.1250 -0.3750  0.1250 (reduced coord)
  -0.20138   -0.05983    0.03332    0.08365    0.25846
 kpt#   5, nband=  5, wtk=  0.09375, kpt= -0.1250  0.2500  0.0000 (reduced coord)
  -0.23617   -0.01547    0.06971    0.12509    0.25046
 kpt#   6, nband=  5, wtk=  0.09375, kpt= -0.2500  0.3750  0.0000 (reduced coord)
  -0.17616   -0.08870    0.00930    0.08506    0.22143
 kpt#   7, nband=  5, wtk=  0.09375, kpt= -0.3750  0.5000  0.0000 (reduced coord)
  -0.16259   -0.09627    0.02958    0.05639    0.18749
 kpt#   8, nband=  5, wtk=  0.18750, kpt= -0.2500  0.5000  0.1250 (reduced coord)
  -0.15644   -0.09984    0.00718    0.04672    0.24132
 kpt#   9, nband=  5, wtk=  0.03125, kpt= -0.1250  0.0000  0.0000 (reduced coord)
  -0.27385    0.09453    0.14278    0.14278    0.24256
 kpt#  10, nband=  5, wtk=  0.03125, kpt= -0.3750  0.0000  0.0000 (reduced coord)
  -0.22029   -0.06284    0.11380    0.11380    0.21142
 Total charge density [el/Bohr^3]
)     Maximum=    8.3017E-02  at reduced coord.    0.1250    0.1250    0.6250
)Next maximum=    8.3017E-02  at reduced coord.    0.1250    0.6250    0.1250
)     Minimum=    1.4237E-03  at reduced coord.    0.0000    0.0000    0.0000
)Next minimum=    1.4237E-03  at reduced coord.    0.2500    0.2500    0.2500
   Integrated=    8.0000E+00

 Cartesian components of stress tensor (hartree/bohr^3)
  sigma(1 1)= -2.21377392E-07  sigma(3 2)=  0.00000000E+00
  sigma(2 2)= -2.21377392E-07  sigma(3 1)=  0.00000000E+00
  sigma(3 3)= -2.21377392E-07  sigma(2 1)=  0.00000000E+00

-Cartesian components of stress tensor (GPa)         [Pressure=  6.5131E-03 GPa]
- sigma(1 1)= -6.51314664E-03  sigma(3 2)=  0.00000000E+00
- sigma(2 2)= -6.51314664E-03  sigma(3 1)=  0.00000000E+00
- sigma(3 3)= -6.51314664E-03  sigma(2 1)=  0.00000000E+00

== END DATASET(S) ==============================================================

 -outvars: echo values of variables after computation  --------

 These variables are accessible in NetCDF format (tbase3_4o_OUT.nc)

            acell1     1.0349653649E+01  1.0349653649E+01  1.0349653649E+01 Bohr
            acell2     1.0335900651E+01  1.0335900651E+01  1.0335900651E+01 Bohr
              amu      2.80855000E+01
           diemac      1.20000000E+01
          dilatmx      1.05000000E+00
             ecut      1.20000000E+01 Hartree
           ecutsm      5.00000000E-01 Hartree
           etotal1    -8.4563506544E+00
           etotal2    -8.4621588534E+00
            fcart1    -1.1382335342E-29 -1.6260479061E-30  1.1382335342E-29
                       1.1382335342E-29  1.6260479061E-30 -1.1382335342E-29
            fcart2     4.8846345991E-30 -1.6282115330E-30 -1.6282115330E-30
                      -4.8846345991E-30  1.6282115330E-30  1.6282115330E-30
-          fftalg         512
           getwfk          -1
           ionmov           2
              ixc          11
           jdtset        1    2
              kpt1    -2.50000000E-01  5.00000000E-01  0.00000000E+00
                      -2.50000000E-01  0.00000000E+00  0.00000000E+00
              kpt2    -1.25000000E-01 -2.50000000E-01  0.00000000E+00
                      -1.25000000E-01  5.00000000E-01  0.00000000E+00
                      -2.50000000E-01 -3.75000000E-01  0.00000000E+00
                      -1.25000000E-01 -3.75000000E-01  1.25000000E-01
                      -1.25000000E-01  2.50000000E-01  0.00000000E+00
                      -2.50000000E-01  3.75000000E-01  0.00000000E+00
                      -3.75000000E-01  5.00000000E-01  0.00000000E+00
                      -2.50000000E-01  5.00000000E-01  1.25000000E-01
                      -1.25000000E-01  0.00000000E+00  0.00000000E+00
                      -3.75000000E-01  0.00000000E+00  0.00000000E+00
         kptrlatt1       2   -2    2     -2    2    2     -2   -2    2
         kptrlatt2       4   -4    4     -4    4    4     -4   -4    4
          kptrlen1     2.03600000E+01
          kptrlen2     4.07200000E+01
P           mkmem1          2
P           mkmem2         10
            natom           2
            nband1          5
            nband2          5
           ndtset           2
            ngfft          24      24      24
             nkpt1          2
             nkpt2         10
            nstep          10
             nsym          48
            ntime          10
           ntypat           1
              occ1     2.000000  2.000000  2.000000  2.000000  0.000000
              occ2     2.000000  2.000000  2.000000  2.000000  0.000000
          optcell           1
            rprim      0.0000000000E+00  5.0000000000E-01  5.0000000000E-01
                       5.0000000000E-01  0.0000000000E+00  5.0000000000E-01
                       5.0000000000E-01  5.0000000000E-01  0.0000000000E+00
           shiftk      5.00000000E-01  5.00000000E-01  5.00000000E-01
          spgroup         227
           strten1    -2.3581505454E-07 -2.3581505454E-07 -2.3581505454E-07
                       0.0000000000E+00  0.0000000000E+00  0.0000000000E+00
           strten2    -2.2137739203E-07 -2.2137739203E-07 -2.2137739203E-07
                       0.0000000000E+00  0.0000000000E+00  0.0000000000E+00
           symrel      1  0  0   0  1  0   0  0  1      -1  0  0   0 -1  0   0  0 -1
                       0 -1  1   0 -1  0   1 -1  0       0  1 -1   0  1  0  -1  1  0
                      -1  0  0  -1  0  1  -1  1  0       1  0  0   1  0 -1   1 -1  0
                       0  1 -1   1  0 -1   0  0 -1       0 -1  1  -1  0  1   0  0  1
                      -1  0  0  -1  1  0  -1  0  1       1  0  0   1 -1  0   1  0 -1
                       0 -1  1   1 -1  0   0 -1  0       0  1 -1  -1  1  0   0  1  0
                       1  0  0   0  0  1   0  1  0      -1  0  0   0  0 -1   0 -1  0
                       0  1 -1   0  0 -1   1  0 -1       0 -1  1   0  0  1  -1  0  1
                      -1  0  1  -1  1  0  -1  0  0       1  0 -1   1 -1  0   1  0  0
                       0 -1  0   1 -1  0   0 -1  1       0  1  0  -1  1  0   0  1 -1
                       1  0 -1   0  0 -1   0  1 -1      -1  0  1   0  0  1   0 -1  1
                       0  1  0   0  0  1   1  0  0       0 -1  0   0  0 -1  -1  0  0
                       1  0 -1   0  1 -1   0  0 -1      -1  0  1   0 -1  1   0  0  1
                       0 -1  0   0 -1  1   1 -1  0       0  1  0   0  1 -1  -1  1  0
                      -1  0  1  -1  0  0  -1  1  0       1  0 -1   1  0  0   1 -1  0
                       0  1  0   1  0  0   0  0  1       0 -1  0  -1  0  0   0  0 -1
                       0  0 -1   0  1 -1   1  0 -1       0  0  1   0 -1  1  -1  0  1
                       1 -1  0   0 -1  1   0 -1  0      -1  1  0   0  1 -1   0  1  0
                       0  0  1   1  0  0   0  1  0       0  0 -1  -1  0  0   0 -1  0
                      -1  1  0  -1  0  0  -1  0  1       1 -1  0   1  0  0   1  0 -1
                       0  0  1   0  1  0   1  0  0       0  0 -1   0 -1  0  -1  0  0
                       1 -1  0   0 -1  0   0 -1  1      -1  1  0   0  1  0   0  1 -1
                       0  0 -1   1  0 -1   0  1 -1       0  0  1  -1  0  1   0 -1  1
                      -1  1  0  -1  0  1  -1  0  0       1 -1  0   1  0 -1   1  0  0
            tnons      0.0000000  0.0000000  0.0000000     0.2500000  0.2500000  0.2500000
                       0.0000000  0.0000000  0.0000000     0.2500000  0.2500000  0.2500000
                       0.0000000  0.0000000  0.0000000     0.2500000  0.2500000  0.2500000
                       0.0000000  0.0000000  0.0000000     0.2500000  0.2500000  0.2500000
                       0.0000000  0.0000000  0.0000000     0.2500000  0.2500000  0.2500000
                       0.0000000  0.0000000  0.0000000     0.2500000  0.2500000  0.2500000
                       0.0000000  0.0000000  0.0000000     0.2500000  0.2500000  0.2500000
                       0.0000000  0.0000000  0.0000000     0.2500000  0.2500000  0.2500000
                       0.0000000  0.0000000  0.0000000     0.2500000  0.2500000  0.2500000
                       0.0000000  0.0000000  0.0000000     0.2500000  0.2500000  0.2500000
                       0.0000000  0.0000000  0.0000000     0.2500000  0.2500000  0.2500000
                       0.0000000  0.0000000  0.0000000     0.2500000  0.2500000  0.2500000
                       0.0000000  0.0000000  0.0000000     0.2500000  0.2500000  0.2500000
                       0.0000000  0.0000000  0.0000000     0.2500000  0.2500000  0.2500000
                       0.0000000  0.0000000  0.0000000     0.2500000  0.2500000  0.2500000
                       0.0000000  0.0000000  0.0000000     0.2500000  0.2500000  0.2500000
                       0.0000000  0.0000000  0.0000000     0.2500000  0.2500000  0.2500000
                       0.0000000  0.0000000  0.0000000     0.2500000  0.2500000  0.2500000
                       0.0000000  0.0000000  0.0000000     0.2500000  0.2500000  0.2500000
                       0.0000000  0.0000000  0.0000000     0.2500000  0.2500000  0.2500000
                       0.0000000  0.0000000  0.0000000     0.2500000  0.2500000  0.2500000
                       0.0000000  0.0000000  0.0000000     0.2500000  0.2500000  0.2500000
                       0.0000000  0.0000000  0.0000000     0.2500000  0.2500000  0.2500000
                       0.0000000  0.0000000  0.0000000     0.2500000  0.2500000  0.2500000
           tolvrs      1.00000000E-14
            typat      1  1
              wtk1       0.75000    0.25000
              wtk2       0.09375    0.09375    0.09375    0.18750    0.09375    0.09375
                         0.09375    0.18750    0.03125    0.03125
           xangst1    -4.5080435668E-30  8.2827557211E-31  6.4090385152E-30
                       1.3692002070E+00  1.3692002070E+00  1.3692002070E+00
           xangst2    -1.7970810724E-29  0.0000000000E+00  1.7970810724E-29
                       1.3673807637E+00  1.3673807637E+00  1.3673807637E+00
            xcart1    -8.5189677364E-30  1.5652139938E-30  1.2111327569E-29
                       2.5874134123E+00  2.5874134123E+00  2.5874134123E+00
            xcart2    -3.3959910654E-29  0.0000000000E+00  3.3959910654E-29
                       2.5839751628E+00  2.5839751628E+00  2.5839751628E+00
             xred      2.1445654175E-30  1.9586605575E-31 -1.8420984854E-30
                       2.5000000000E-01  2.5000000000E-01  2.5000000000E-01
            znucl       14.00000

 Calculation completed.
.Delivered   1 WARNINGs and   6 COMMENTs to log file.

--- !FinalSummary
program: abinit
version: 9.10.3
start_datetime: Thu May 01 11:33:29 2025
end_datetime: Thu May 01 11:33:44 2025
overall_cpu_time:           4.5
overall_wall_time:          15.6
exit_requested_by_user: no
timelimit: 0
pseudos:
    Si  : 45c393525680abc7b25445b8ec62bf83
usepaw: 0
mpi_procs: 1
omp_threads: 1
num_warnings: 1
num_comments: 6
...