.Version 9.10.3 of ABINIT

 ABINIT is a project of the Universite Catholique de Louvain,
 Corning Inc. and other collaborators, see ~abinit/doc/developers/contributors.txt .
 acknowledgments of the ABINIT effort.

.Starting date : Thu  8 May 2025.
- ( at 16h16 )

- input  file    -> mos2_exp_relx.abi
- output file    -> mos2_exp_relx.abo
- root for input  files -> mos2_exp_relxi
- root for output files -> mos2_exp_relxo

 DATASET   11 : space group P1 (#  1); Bravais aP (primitive triclinic)
     intxc =       0    ionmov =       0      iscf =       7    lmnmax =       6
     lnmax =       6     mgfft =     160  mpssoang =       3    mqgrid =    7609
     natom =       3  nloc_mem =       1    nspden =       1   nspinor =       1
    nsppol =       1      nsym =       1    n1xccc =    2501    ntypat =       2
    occopt =       1   xclevel =       2
-    mband =          14        mffmem =           1         mkmem =           1
       mpw =        5030          nfft =      116640          nkpt =           8
  Rough estimation (10% accuracy) of disk space for files :

[...]

 DATASET   86 : space group P1 (#  1); Bravais aP (primitive triclinic)
     intxc =       0    ionmov =       0      iscf =       7    lmnmax =       6
     lnmax =       6     mgfft =     324  mpssoang =       3    mqgrid =   16141
     natom =       3  nloc_mem =       1    nspden =       1   nspinor =       1
    nsppol =       1      nsym =       1    n1xccc =    2501    ntypat =       2
    occopt =       1   xclevel =       2
-    mband =          14        mffmem =           1         mkmem =           2
       mpw =       47670          nfft =      944784          nkpt =          98
  Rough estimation (10% accuracy) of disk space for files :

------------- Echo of variables that govern the present computation ------------
-
- outvars: echo of selected default values
-   iomode0 =  0 , fftalg0 =512 , wfoptalg0 =  0
-
- outvars: echo of global parameters not present in the input file
-  max_nthreads =    0
-
 -outvars: echo values of preprocessed input variables --------
            acell      5.9719125251E+00  5.9719125251E+00  3.7794522658E+01 Bohr
              amu      9.59400000E+01  3.20660000E+01
      chksymbreak           0
             ecut11    2.00000000E+01 Hartree
             ecut12    2.00000000E+01 Hartree
             ecut13    2.00000000E+01 Hartree
             ecut14    2.00000000E+01 Hartree
             ecut15    2.00000000E+01 Hartree
             ecut16    2.00000000E+01 Hartree
             ecut21    3.00000000E+01 Hartree
             ecut22    3.00000000E+01 Hartree
             ecut23    3.00000000E+01 Hartree
             ecut24    3.00000000E+01 Hartree
             ecut25    3.00000000E+01 Hartree
             ecut26    3.00000000E+01 Hartree
             ecut31    4.00000000E+01 Hartree
             ecut32    4.00000000E+01 Hartree
             ecut33    4.00000000E+01 Hartree
             ecut34    4.00000000E+01 Hartree
             ecut35    4.00000000E+01 Hartree
             ecut36    4.00000000E+01 Hartree
             ecut41    5.00000000E+01 Hartree
             ecut42    5.00000000E+01 Hartree
             ecut43    5.00000000E+01 Hartree
             ecut44    5.00000000E+01 Hartree
             ecut45    5.00000000E+01 Hartree
             ecut46    5.00000000E+01 Hartree
             ecut51    6.00000000E+01 Hartree
             ecut52    6.00000000E+01 Hartree
             ecut53    6.00000000E+01 Hartree
             ecut54    6.00000000E+01 Hartree
             ecut55    6.00000000E+01 Hartree
             ecut56    6.00000000E+01 Hartree
             ecut61    7.00000000E+01 Hartree
             ecut62    7.00000000E+01 Hartree
             ecut63    7.00000000E+01 Hartree
             ecut64    7.00000000E+01 Hartree
             ecut65    7.00000000E+01 Hartree
             ecut66    7.00000000E+01 Hartree
             ecut71    8.00000000E+01 Hartree
             ecut72    8.00000000E+01 Hartree
             ecut73    8.00000000E+01 Hartree
             ecut74    8.00000000E+01 Hartree
             ecut75    8.00000000E+01 Hartree
             ecut76    8.00000000E+01 Hartree
             ecut81    9.00000000E+01 Hartree
             ecut82    9.00000000E+01 Hartree
             ecut83    9.00000000E+01 Hartree
             ecut84    9.00000000E+01 Hartree
             ecut85    9.00000000E+01 Hartree
             ecut86    9.00000000E+01 Hartree
-          fftalg         512
           getwfk          -1
              ixc          11
           jdtset       11   12   13   14   15   16   21   22   23   24
                        25   26   31   32   33   34   35   36   41   42
                        43   44   45   46   51   52   53   54   55   56
                        61   62   63   64   65   66   71   72   73   74
                        75   76   81   82   83   84   85   86
              kpt11    1.25000000E-01  1.25000000E-01  5.00000000E-01
                       3.75000000E-01  1.25000000E-01  5.00000000E-01
                      -3.75000000E-01  1.25000000E-01  5.00000000E-01
                      -1.25000000E-01  1.25000000E-01  5.00000000E-01
                       1.25000000E-01  3.75000000E-01  5.00000000E-01
                       3.75000000E-01  3.75000000E-01  5.00000000E-01
                      -3.75000000E-01  3.75000000E-01  5.00000000E-01
                      -1.25000000E-01  3.75000000E-01  5.00000000E-01
              kpt12    8.33333333E-02  8.33333333E-02  5.00000000E-01
                       2.50000000E-01  8.33333333E-02  5.00000000E-01
                       4.16666667E-01  8.33333333E-02  5.00000000E-01
                      -4.16666667E-01  8.33333333E-02  5.00000000E-01
                      -2.50000000E-01  8.33333333E-02  5.00000000E-01
                      -8.33333333E-02  8.33333333E-02  5.00000000E-01
                       8.33333333E-02  2.50000000E-01  5.00000000E-01
                       2.50000000E-01  2.50000000E-01  5.00000000E-01
                       4.16666667E-01  2.50000000E-01  5.00000000E-01
                      -4.16666667E-01  2.50000000E-01  5.00000000E-01
                      -2.50000000E-01  2.50000000E-01  5.00000000E-01
                      -8.33333333E-02  2.50000000E-01  5.00000000E-01
                       8.33333333E-02  4.16666667E-01  5.00000000E-01
                       2.50000000E-01  4.16666667E-01  5.00000000E-01
                       4.16666667E-01  4.16666667E-01  5.00000000E-01
                      -4.16666667E-01  4.16666667E-01  5.00000000E-01
                      -2.50000000E-01  4.16666667E-01  5.00000000E-01
                      -8.33333333E-02  4.16666667E-01  5.00000000E-01
              kpt13    6.25000000E-02  6.25000000E-02  5.00000000E-01
                       1.87500000E-01  6.25000000E-02  5.00000000E-01
                       3.12500000E-01  6.25000000E-02  5.00000000E-01
                       4.37500000E-01  6.25000000E-02  5.00000000E-01
                      -4.37500000E-01  6.25000000E-02  5.00000000E-01
                      -3.12500000E-01  6.25000000E-02  5.00000000E-01
                      -1.87500000E-01  6.25000000E-02  5.00000000E-01
                      -6.25000000E-02  6.25000000E-02  5.00000000E-01
                       6.25000000E-02  1.87500000E-01  5.00000000E-01
                       1.87500000E-01  1.87500000E-01  5.00000000E-01
                       3.12500000E-01  1.87500000E-01  5.00000000E-01
                       4.37500000E-01  1.87500000E-01  5.00000000E-01
                      -4.37500000E-01  1.87500000E-01  5.00000000E-01
                      -3.12500000E-01  1.87500000E-01  5.00000000E-01
                      -1.87500000E-01  1.87500000E-01  5.00000000E-01
                      -6.25000000E-02  1.87500000E-01  5.00000000E-01
                       6.25000000E-02  3.12500000E-01  5.00000000E-01
                       1.87500000E-01  3.12500000E-01  5.00000000E-01
                       3.12500000E-01  3.12500000E-01  5.00000000E-01
                       4.37500000E-01  3.12500000E-01  5.00000000E-01
                      -4.37500000E-01  3.12500000E-01  5.00000000E-01
                      -3.12500000E-01  3.12500000E-01  5.00000000E-01
                      -1.87500000E-01  3.12500000E-01  5.00000000E-01
                      -6.25000000E-02  3.12500000E-01  5.00000000E-01
                       6.25000000E-02  4.37500000E-01  5.00000000E-01
                       1.87500000E-01  4.37500000E-01  5.00000000E-01
                       3.12500000E-01  4.37500000E-01  5.00000000E-01
                       4.37500000E-01  4.37500000E-01  5.00000000E-01
                      -4.37500000E-01  4.37500000E-01  5.00000000E-01
                      -3.12500000E-01  4.37500000E-01  5.00000000E-01
                      -1.87500000E-01  4.37500000E-01  5.00000000E-01
                      -6.25000000E-02  4.37500000E-01  5.00000000E-01
              kpt14    5.00000000E-02  5.00000000E-02  5.00000000E-01
                       1.50000000E-01  5.00000000E-02  5.00000000E-01
                       2.50000000E-01  5.00000000E-02  5.00000000E-01
                       3.50000000E-01  5.00000000E-02  5.00000000E-01
                       4.50000000E-01  5.00000000E-02  5.00000000E-01
                      -4.50000000E-01  5.00000000E-02  5.00000000E-01
                      -3.50000000E-01  5.00000000E-02  5.00000000E-01
                      -2.50000000E-01  5.00000000E-02  5.00000000E-01
                      -1.50000000E-01  5.00000000E-02  5.00000000E-01
                      -5.00000000E-02  5.00000000E-02  5.00000000E-01
                       5.00000000E-02  1.50000000E-01  5.00000000E-01
                       1.50000000E-01  1.50000000E-01  5.00000000E-01
                       2.50000000E-01  1.50000000E-01  5.00000000E-01
                       3.50000000E-01  1.50000000E-01  5.00000000E-01
                       4.50000000E-01  1.50000000E-01  5.00000000E-01
                      -4.50000000E-01  1.50000000E-01  5.00000000E-01
                      -3.50000000E-01  1.50000000E-01  5.00000000E-01
                      -2.50000000E-01  1.50000000E-01  5.00000000E-01
                      -1.50000000E-01  1.50000000E-01  5.00000000E-01
                      -5.00000000E-02  1.50000000E-01  5.00000000E-01
                       5.00000000E-02  2.50000000E-01  5.00000000E-01
                       1.50000000E-01  2.50000000E-01  5.00000000E-01
                       2.50000000E-01  2.50000000E-01  5.00000000E-01
                       3.50000000E-01  2.50000000E-01  5.00000000E-01
                       4.50000000E-01  2.50000000E-01  5.00000000E-01
                      -4.50000000E-01  2.50000000E-01  5.00000000E-01
                      -3.50000000E-01  2.50000000E-01  5.00000000E-01
                      -2.50000000E-01  2.50000000E-01  5.00000000E-01
                      -1.50000000E-01  2.50000000E-01  5.00000000E-01
                      -5.00000000E-02  2.50000000E-01  5.00000000E-01
                       5.00000000E-02  3.50000000E-01  5.00000000E-01
                       1.50000000E-01  3.50000000E-01  5.00000000E-01
[...]
                         0.01020    0.01020    0.01020    0.01020    0.01020    0.01020
                         0.01020    0.01020
              wtk41      0.12500    0.12500    0.12500    0.12500    0.12500    0.12500
                         0.12500    0.12500
              wtk42      0.05556    0.05556    0.05556    0.05556    0.05556    0.05556
                         0.05556    0.05556    0.05556    0.05556    0.05556    0.05556
                         0.05556    0.05556    0.05556    0.05556    0.05556    0.05556
              wtk43      0.03125    0.03125    0.03125    0.03125    0.03125    0.03125
                         0.03125    0.03125    0.03125    0.03125    0.03125    0.03125
                         0.03125    0.03125    0.03125    0.03125    0.03125    0.03125
                         0.03125    0.03125    0.03125    0.03125    0.03125    0.03125
                         0.03125    0.03125    0.03125    0.03125    0.03125    0.03125
                         0.03125    0.03125
              wtk44      0.02000    0.02000    0.02000    0.02000    0.02000    0.02000
                         0.02000    0.02000    0.02000    0.02000    0.02000    0.02000
                         0.02000    0.02000    0.02000    0.02000    0.02000    0.02000
                         0.02000    0.02000    0.02000    0.02000    0.02000    0.02000
                         0.02000    0.02000    0.02000    0.02000    0.02000    0.02000
                         0.02000    0.02000    0.02000    0.02000    0.02000    0.02000
                         0.02000    0.02000    0.02000    0.02000    0.02000    0.02000
                         0.02000    0.02000    0.02000    0.02000    0.02000    0.02000
                         0.02000    0.02000
              wtk45      0.01389    0.01389    0.01389    0.01389    0.01389    0.01389
                         0.01389    0.01389    0.01389    0.01389    0.01389    0.01389
                         0.01389    0.01389    0.01389    0.01389    0.01389    0.01389
                         0.01389    0.01389    0.01389    0.01389    0.01389    0.01389
                         0.01389    0.01389    0.01389    0.01389    0.01389    0.01389
                         0.01389    0.01389    0.01389    0.01389    0.01389    0.01389
                         0.01389    0.01389    0.01389    0.01389    0.01389    0.01389
                         0.01389    0.01389    0.01389    0.01389    0.01389    0.01389
                         0.01389    0.01389
              wtk46      0.01020    0.01020    0.01020    0.01020    0.01020    0.01020
                         0.01020    0.01020    0.01020    0.01020    0.01020    0.01020
                         0.01020    0.01020    0.01020    0.01020    0.01020    0.01020
                         0.01020    0.01020    0.01020    0.01020    0.01020    0.01020
                         0.01020    0.01020    0.01020    0.01020    0.01020    0.01020
                         0.01020    0.01020    0.01020    0.01020    0.01020    0.01020
                         0.01020    0.01020    0.01020    0.01020    0.01020    0.01020
                         0.01020    0.01020    0.01020    0.01020    0.01020    0.01020
                         0.01020    0.01020
              wtk51      0.12500    0.12500    0.12500    0.12500    0.12500    0.12500
                         0.12500    0.12500
              wtk52      0.05556    0.05556    0.05556    0.05556    0.05556    0.05556
                         0.05556    0.05556    0.05556    0.05556    0.05556    0.05556
                         0.05556    0.05556    0.05556    0.05556    0.05556    0.05556
              wtk53      0.03125    0.03125    0.03125    0.03125    0.03125    0.03125
                         0.03125    0.03125    0.03125    0.03125    0.03125    0.03125
                         0.03125    0.03125    0.03125    0.03125    0.03125    0.03125
                         0.03125    0.03125    0.03125    0.03125    0.03125    0.03125
                         0.03125    0.03125    0.03125    0.03125    0.03125    0.03125
                         0.03125    0.03125
              wtk54      0.02000    0.02000    0.02000    0.02000    0.02000    0.02000
                         0.02000    0.02000    0.02000    0.02000    0.02000    0.02000
                         0.02000    0.02000    0.02000    0.02000    0.02000    0.02000
                         0.02000    0.02000    0.02000    0.02000    0.02000    0.02000
                         0.02000    0.02000    0.02000    0.02000    0.02000    0.02000
                         0.02000    0.02000    0.02000    0.02000    0.02000    0.02000
                         0.02000    0.02000    0.02000    0.02000    0.02000    0.02000
                         0.02000    0.02000    0.02000    0.02000    0.02000    0.02000
                         0.02000    0.02000
              wtk55      0.01389    0.01389    0.01389    0.01389    0.01389    0.01389
                         0.01389    0.01389    0.01389    0.01389    0.01389    0.01389
                         0.01389    0.01389    0.01389    0.01389    0.01389    0.01389
                         0.01389    0.01389    0.01389    0.01389    0.01389    0.01389
                         0.01389    0.01389    0.01389    0.01389    0.01389    0.01389
                         0.01389    0.01389    0.01389    0.01389    0.01389    0.01389
                         0.01389    0.01389    0.01389    0.01389    0.01389    0.01389
                         0.01389    0.01389    0.01389    0.01389    0.01389    0.01389
                         0.01389    0.01389
              wtk56      0.01020    0.01020    0.01020    0.01020    0.01020    0.01020
                         0.01020    0.01020    0.01020    0.01020    0.01020    0.01020
                         0.01020    0.01020    0.01020    0.01020    0.01020    0.01020
                         0.01020    0.01020    0.01020    0.01020    0.01020    0.01020
                         0.01020    0.01020    0.01020    0.01020    0.01020    0.01020
                         0.01020    0.01020    0.01020    0.01020    0.01020    0.01020
                         0.01020    0.01020    0.01020    0.01020    0.01020    0.01020
                         0.01020    0.01020    0.01020    0.01020    0.01020    0.01020
                         0.01020    0.01020
              wtk61      0.12500    0.12500    0.12500    0.12500    0.12500    0.12500
                         0.12500    0.12500
              wtk62      0.05556    0.05556    0.05556    0.05556    0.05556    0.05556
                         0.05556    0.05556    0.05556    0.05556    0.05556    0.05556
                         0.05556    0.05556    0.05556    0.05556    0.05556    0.05556
              wtk63      0.03125    0.03125    0.03125    0.03125    0.03125    0.03125
                         0.03125    0.03125    0.03125    0.03125    0.03125    0.03125
                         0.03125    0.03125    0.03125    0.03125    0.03125    0.03125
                         0.03125    0.03125    0.03125    0.03125    0.03125    0.03125
                         0.03125    0.03125    0.03125    0.03125    0.03125    0.03125
                         0.03125    0.03125
              wtk64      0.02000    0.02000    0.02000    0.02000    0.02000    0.02000
                         0.02000    0.02000    0.02000    0.02000    0.02000    0.02000
                         0.02000    0.02000    0.02000    0.02000    0.02000    0.02000
                         0.02000    0.02000    0.02000    0.02000    0.02000    0.02000
                         0.02000    0.02000    0.02000    0.02000    0.02000    0.02000
                         0.02000    0.02000    0.02000    0.02000    0.02000    0.02000
                         0.02000    0.02000    0.02000    0.02000    0.02000    0.02000
                         0.02000    0.02000    0.02000    0.02000    0.02000    0.02000
                         0.02000    0.02000
              wtk65      0.01389    0.01389    0.01389    0.01389    0.01389    0.01389
                         0.01389    0.01389    0.01389    0.01389    0.01389    0.01389
                         0.01389    0.01389    0.01389    0.01389    0.01389    0.01389
                         0.01389    0.01389    0.01389    0.01389    0.01389    0.01389
                         0.01389    0.01389    0.01389    0.01389    0.01389    0.01389
                         0.01389    0.01389    0.01389    0.01389    0.01389    0.01389
                         0.01389    0.01389    0.01389    0.01389    0.01389    0.01389
                         0.01389    0.01389    0.01389    0.01389    0.01389    0.01389
                         0.01389    0.01389
              wtk66      0.01020    0.01020    0.01020    0.01020    0.01020    0.01020
                         0.01020    0.01020    0.01020    0.01020    0.01020    0.01020
                         0.01020    0.01020    0.01020    0.01020    0.01020    0.01020
                         0.01020    0.01020    0.01020    0.01020    0.01020    0.01020
                         0.01020    0.01020    0.01020    0.01020    0.01020    0.01020
                         0.01020    0.01020    0.01020    0.01020    0.01020    0.01020
                         0.01020    0.01020    0.01020    0.01020    0.01020    0.01020
                         0.01020    0.01020    0.01020    0.01020    0.01020    0.01020
                         0.01020    0.01020
              wtk71      0.12500    0.12500    0.12500    0.12500    0.12500    0.12500
                         0.12500    0.12500
              wtk72      0.05556    0.05556    0.05556    0.05556    0.05556    0.05556
                         0.05556    0.05556    0.05556    0.05556    0.05556    0.05556
                         0.05556    0.05556    0.05556    0.05556    0.05556    0.05556
              wtk73      0.03125    0.03125    0.03125    0.03125    0.03125    0.03125
                         0.03125    0.03125    0.03125    0.03125    0.03125    0.03125
                         0.03125    0.03125    0.03125    0.03125    0.03125    0.03125
                         0.03125    0.03125    0.03125    0.03125    0.03125    0.03125
                         0.03125    0.03125    0.03125    0.03125    0.03125    0.03125
                         0.03125    0.03125
              wtk74      0.02000    0.02000    0.02000    0.02000    0.02000    0.02000
                         0.02000    0.02000    0.02000    0.02000    0.02000    0.02000
                         0.02000    0.02000    0.02000    0.02000    0.02000    0.02000
                         0.02000    0.02000    0.02000    0.02000    0.02000    0.02000
                         0.02000    0.02000    0.02000    0.02000    0.02000    0.02000
                         0.02000    0.02000    0.02000    0.02000    0.02000    0.02000
                         0.02000    0.02000    0.02000    0.02000    0.02000    0.02000
                         0.02000    0.02000    0.02000    0.02000    0.02000    0.02000
                         0.02000    0.02000
              wtk75      0.01389    0.01389    0.01389    0.01389    0.01389    0.01389
                         0.01389    0.01389    0.01389    0.01389    0.01389    0.01389
                         0.01389    0.01389    0.01389    0.01389    0.01389    0.01389
                         0.01389    0.01389    0.01389    0.01389    0.01389    0.01389
                         0.01389    0.01389    0.01389    0.01389    0.01389    0.01389
                         0.01389    0.01389    0.01389    0.01389    0.01389    0.01389
                         0.01389    0.01389    0.01389    0.01389    0.01389    0.01389
                         0.01389    0.01389    0.01389    0.01389    0.01389    0.01389
                         0.01389    0.01389
              wtk76      0.01020    0.01020    0.01020    0.01020    0.01020    0.01020
                         0.01020    0.01020    0.01020    0.01020    0.01020    0.01020
                         0.01020    0.01020    0.01020    0.01020    0.01020    0.01020
                         0.01020    0.01020    0.01020    0.01020    0.01020    0.01020
                         0.01020    0.01020    0.01020    0.01020    0.01020    0.01020
                         0.01020    0.01020    0.01020    0.01020    0.01020    0.01020
                         0.01020    0.01020    0.01020    0.01020    0.01020    0.01020
                         0.01020    0.01020    0.01020    0.01020    0.01020    0.01020
                         0.01020    0.01020
              wtk81      0.12500    0.12500    0.12500    0.12500    0.12500    0.12500
                         0.12500    0.12500
              wtk82      0.05556    0.05556    0.05556    0.05556    0.05556    0.05556
                         0.05556    0.05556    0.05556    0.05556    0.05556    0.05556
                         0.05556    0.05556    0.05556    0.05556    0.05556    0.05556
              wtk83      0.03125    0.03125    0.03125    0.03125    0.03125    0.03125
                         0.03125    0.03125    0.03125    0.03125    0.03125    0.03125
                         0.03125    0.03125    0.03125    0.03125    0.03125    0.03125
                         0.03125    0.03125    0.03125    0.03125    0.03125    0.03125
                         0.03125    0.03125    0.03125    0.03125    0.03125    0.03125
                         0.03125    0.03125
              wtk84      0.02000    0.02000    0.02000    0.02000    0.02000    0.02000
                         0.02000    0.02000    0.02000    0.02000    0.02000    0.02000
                         0.02000    0.02000    0.02000    0.02000    0.02000    0.02000
                         0.02000    0.02000    0.02000    0.02000    0.02000    0.02000
                         0.02000    0.02000    0.02000    0.02000    0.02000    0.02000
                         0.02000    0.02000    0.02000    0.02000    0.02000    0.02000
                         0.02000    0.02000    0.02000    0.02000    0.02000    0.02000
                         0.02000    0.02000    0.02000    0.02000    0.02000    0.02000
                         0.02000    0.02000
              wtk85      0.01389    0.01389    0.01389    0.01389    0.01389    0.01389
                         0.01389    0.01389    0.01389    0.01389    0.01389    0.01389
                         0.01389    0.01389    0.01389    0.01389    0.01389    0.01389
                         0.01389    0.01389    0.01389    0.01389    0.01389    0.01389
                         0.01389    0.01389    0.01389    0.01389    0.01389    0.01389
                         0.01389    0.01389    0.01389    0.01389    0.01389    0.01389
                         0.01389    0.01389    0.01389    0.01389    0.01389    0.01389
                         0.01389    0.01389    0.01389    0.01389    0.01389    0.01389
                         0.01389    0.01389
              wtk86      0.01020    0.01020    0.01020    0.01020    0.01020    0.01020
                         0.01020    0.01020    0.01020    0.01020    0.01020    0.01020
                         0.01020    0.01020    0.01020    0.01020    0.01020    0.01020
                         0.01020    0.01020    0.01020    0.01020    0.01020    0.01020
                         0.01020    0.01020    0.01020    0.01020    0.01020    0.01020
                         0.01020    0.01020    0.01020    0.01020    0.01020    0.01020
                         0.01020    0.01020    0.01020    0.01020    0.01020    0.01020
                         0.01020    0.01020    0.01020    0.01020    0.01020    0.01020
                         0.01020    0.01020
                       outvars : Printing only first  50 k-points.
           xangst      1.5801000000E+00  9.1227116034E-01  0.0000000000E+00
                       1.5801000000E+00 -9.1227116034E-01 -1.5850000000E+00
                       1.5801000000E+00 -9.1227116034E-01  1.5850000000E+00
            xcart      2.9859562626E+00  1.7239426520E+00  0.0000000000E+00
                       2.9859562626E+00 -1.7239426520E+00 -2.9952159206E+00
                       2.9859562626E+00 -1.7239426520E+00  2.9952159206E+00
             xred      3.3333333333E-01  6.6666666667E-01  0.0000000000E+00
                       6.6666666667E-01  3.3333333333E-01 -7.9250000000E-02
                       6.6666666667E-01  3.3333333333E-01  7.9250000000E-02
            znucl       42.00000   16.00000

- Timing analysis has been suppressed with timopt=0

 Suggested references for the acknowledgment of ABINIT usage.

 Calculation completed.
.Delivered  38 WARNINGs and   0 COMMENTs to log file.