.Version 9.10.3 of ABINIT

 ABINIT is a project of the Universite Catholique de Louvain,
 Corning Inc. and other collaborators, see ~abinit/doc/developers/contributors.txt .
 acknowledgments of the ABINIT effort.

.Starting date : Thu  8 May 2025.
- ( at 18h14 )

- input  file    -> mos2_exp_relx_high.abi
- output file    -> mos2_exp_relx_high.abo
- root for input  files -> mos2_exp_relx_highi
- root for output files -> mos2_exp_relx_higho

 DATASET   11 : space group P1 (#  1); Bravais aP (primitive triclinic)
     intxc =       0    ionmov =       0      iscf =       7    lmnmax =       6
     lnmax =       6     mgfft =     243  mpssoang =       3    mqgrid =   12031
     natom =       3  nloc_mem =       1    nspden =       1   nspinor =       1
    nsppol =       1      nsym =       1    n1xccc =    2501    ntypat =       2
    occopt =       1   xclevel =       2
-    mband =          14        mffmem =           1         mkmem =           1
       mpw =       19796          nfft =      388800          nkpt =           8
  Rough estimation (10% accuracy) of disk space for files :

[...]

 DATASET   66 : space group P1 (#  1); Bravais aP (primitive triclinic)
     intxc =       0    ionmov =       0      iscf =       7    lmnmax =       6
     lnmax =       6     mgfft =     360  mpssoang =       3    mqgrid =   17014
     natom =       3  nloc_mem =       1    nspden =       1   nspinor =       1
    nsppol =       1      nsym =       1    n1xccc =    2501    ntypat =       2
    occopt =       1   xclevel =       2
-    mband =          14        mffmem =           1         mkmem =           2
       mpw =       55960          nfft =     1049760          nkpt =          98
  Rough estimation (10% accuracy) of disk space for files :

------------- Echo of variables that govern the present computation ------------
-
- outvars: echo of selected default values
-   iomode0 =  0 , fftalg0 =512 , wfoptalg0 =  0
-
- outvars: echo of global parameters not present in the input file
-  max_nthreads =    0
-
 -outvars: echo values of preprocessed input variables --------
            acell      5.9719125251E+00  5.9719125251E+00  3.7794522658E+01 Bohr
              amu      9.59400000E+01  3.20660000E+01
      chksymbreak           0
             ecut11    5.00000000E+01 Hartree
             ecut12    5.00000000E+01 Hartree
             ecut13    5.00000000E+01 Hartree
             ecut14    5.00000000E+01 Hartree
             ecut15    5.00000000E+01 Hartree
             ecut16    5.00000000E+01 Hartree
             ecut21    6.00000000E+01 Hartree
             ecut22    6.00000000E+01 Hartree
             ecut23    6.00000000E+01 Hartree
             ecut24    6.00000000E+01 Hartree
             ecut25    6.00000000E+01 Hartree
             ecut26    6.00000000E+01 Hartree
             ecut31    7.00000000E+01 Hartree
             ecut32    7.00000000E+01 Hartree
             ecut33    7.00000000E+01 Hartree
             ecut34    7.00000000E+01 Hartree
             ecut35    7.00000000E+01 Hartree
             ecut36    7.00000000E+01 Hartree
             ecut41    8.00000000E+01 Hartree
             ecut42    8.00000000E+01 Hartree
             ecut43    8.00000000E+01 Hartree
             ecut44    8.00000000E+01 Hartree
             ecut45    8.00000000E+01 Hartree
             ecut46    8.00000000E+01 Hartree
             ecut51    9.00000000E+01 Hartree
             ecut52    9.00000000E+01 Hartree
             ecut53    9.00000000E+01 Hartree
             ecut54    9.00000000E+01 Hartree
             ecut55    9.00000000E+01 Hartree
             ecut56    9.00000000E+01 Hartree
             ecut61    1.00000000E+02 Hartree
             ecut62    1.00000000E+02 Hartree
             ecut63    1.00000000E+02 Hartree
             ecut64    1.00000000E+02 Hartree
             ecut65    1.00000000E+02 Hartree
             ecut66    1.00000000E+02 Hartree
-          fftalg         512
           getwfk          -1
              ixc          11
           jdtset       11   12   13   14   15   16   21   22   23   24
                        25   26   31   32   33   34   35   36   41   42
                        43   44   45   46   51   52   53   54   55   56
                        61   62   63   64   65   66
              kpt11    1.25000000E-01  1.25000000E-01  5.00000000E-01
                       3.75000000E-01  1.25000000E-01  5.00000000E-01
                      -3.75000000E-01  1.25000000E-01  5.00000000E-01
                      -1.25000000E-01  1.25000000E-01  5.00000000E-01
                       1.25000000E-01  3.75000000E-01  5.00000000E-01
                       3.75000000E-01  3.75000000E-01  5.00000000E-01
                      -3.75000000E-01  3.75000000E-01  5.00000000E-01
                      -1.25000000E-01  3.75000000E-01  5.00000000E-01
              kpt12    8.33333333E-02  8.33333333E-02  5.00000000E-01
                       2.50000000E-01  8.33333333E-02  5.00000000E-01
                       4.16666667E-01  8.33333333E-02  5.00000000E-01
                      -4.16666667E-01  8.33333333E-02  5.00000000E-01
                      -2.50000000E-01  8.33333333E-02  5.00000000E-01
                      -8.33333333E-02  8.33333333E-02  5.00000000E-01
                       8.33333333E-02  2.50000000E-01  5.00000000E-01
                       2.50000000E-01  2.50000000E-01  5.00000000E-01
                       4.16666667E-01  2.50000000E-01  5.00000000E-01
                      -4.16666667E-01  2.50000000E-01  5.00000000E-01
                      -2.50000000E-01  2.50000000E-01  5.00000000E-01
                      -8.33333333E-02  2.50000000E-01  5.00000000E-01
                       8.33333333E-02  4.16666667E-01  5.00000000E-01
                       2.50000000E-01  4.16666667E-01  5.00000000E-01
                       4.16666667E-01  4.16666667E-01  5.00000000E-01
                      -4.16666667E-01  4.16666667E-01  5.00000000E-01
                      -2.50000000E-01  4.16666667E-01  5.00000000E-01
                      -8.33333333E-02  4.16666667E-01  5.00000000E-01
              kpt13    6.25000000E-02  6.25000000E-02  5.00000000E-01
                       1.87500000E-01  6.25000000E-02  5.00000000E-01
                       3.12500000E-01  6.25000000E-02  5.00000000E-01
                       4.37500000E-01  6.25000000E-02  5.00000000E-01
                      -4.37500000E-01  6.25000000E-02  5.00000000E-01
                      -3.12500000E-01  6.25000000E-02  5.00000000E-01
                      -1.87500000E-01  6.25000000E-02  5.00000000E-01
                      -6.25000000E-02  6.25000000E-02  5.00000000E-01
                       6.25000000E-02  1.87500000E-01  5.00000000E-01
                       1.87500000E-01  1.87500000E-01  5.00000000E-01
                       3.12500000E-01  1.87500000E-01  5.00000000E-01
                       4.37500000E-01  1.87500000E-01  5.00000000E-01
                      -4.37500000E-01  1.87500000E-01  5.00000000E-01
                      -3.12500000E-01  1.87500000E-01  5.00000000E-01
                      -1.87500000E-01  1.87500000E-01  5.00000000E-01
                      -6.25000000E-02  1.87500000E-01  5.00000000E-01
                       6.25000000E-02  3.12500000E-01  5.00000000E-01
                       1.87500000E-01  3.12500000E-01  5.00000000E-01
                       3.12500000E-01  3.12500000E-01  5.00000000E-01
                       4.37500000E-01  3.12500000E-01  5.00000000E-01
                      -4.37500000E-01  3.12500000E-01  5.00000000E-01
                      -3.12500000E-01  3.12500000E-01  5.00000000E-01
                      -1.87500000E-01  3.12500000E-01  5.00000000E-01
                      -6.25000000E-02  3.12500000E-01  5.00000000E-01
                       6.25000000E-02  4.37500000E-01  5.00000000E-01
                       1.87500000E-01  4.37500000E-01  5.00000000E-01
                       3.12500000E-01  4.37500000E-01  5.00000000E-01
                       4.37500000E-01  4.37500000E-01  5.00000000E-01
                      -4.37500000E-01  4.37500000E-01  5.00000000E-01
                      -3.12500000E-01  4.37500000E-01  5.00000000E-01
                      -1.87500000E-01  4.37500000E-01  5.00000000E-01
                      -6.25000000E-02  4.37500000E-01  5.00000000E-01
              kpt14    5.00000000E-02  5.00000000E-02  5.00000000E-01
                       1.50000000E-01  5.00000000E-02  5.00000000E-01
                       2.50000000E-01  5.00000000E-02  5.00000000E-01
                       3.50000000E-01  5.00000000E-02  5.00000000E-01
                       4.50000000E-01  5.00000000E-02  5.00000000E-01
                      -4.50000000E-01  5.00000000E-02  5.00000000E-01
                      -3.50000000E-01  5.00000000E-02  5.00000000E-01
                      -2.50000000E-01  5.00000000E-02  5.00000000E-01
                      -1.50000000E-01  5.00000000E-02  5.00000000E-01
                      -5.00000000E-02  5.00000000E-02  5.00000000E-01
                       5.00000000E-02  1.50000000E-01  5.00000000E-01
                       1.50000000E-01  1.50000000E-01  5.00000000E-01
                       2.50000000E-01  1.50000000E-01  5.00000000E-01
                       3.50000000E-01  1.50000000E-01  5.00000000E-01
                       4.50000000E-01  1.50000000E-01  5.00000000E-01
                      -4.50000000E-01  1.50000000E-01  5.00000000E-01
                      -3.50000000E-01  1.50000000E-01  5.00000000E-01
                      -2.50000000E-01  1.50000000E-01  5.00000000E-01
                      -1.50000000E-01  1.50000000E-01  5.00000000E-01
                      -5.00000000E-02  1.50000000E-01  5.00000000E-01
                       5.00000000E-02  2.50000000E-01  5.00000000E-01
                       1.50000000E-01  2.50000000E-01  5.00000000E-01
                       2.50000000E-01  2.50000000E-01  5.00000000E-01
                       3.50000000E-01  2.50000000E-01  5.00000000E-01
                       4.50000000E-01  2.50000000E-01  5.00000000E-01
                      -4.50000000E-01  2.50000000E-01  5.00000000E-01
                      -3.50000000E-01  2.50000000E-01  5.00000000E-01
                      -2.50000000E-01  2.50000000E-01  5.00000000E-01
                      -1.50000000E-01  2.50000000E-01  5.00000000E-01
                      -5.00000000E-02  2.50000000E-01  5.00000000E-01
                       5.00000000E-02  3.50000000E-01  5.00000000E-01
                       1.50000000E-01  3.50000000E-01  5.00000000E-01
                       2.50000000E-01  3.50000000E-01  5.00000000E-01
                       3.50000000E-01  3.50000000E-01  5.00000000E-01
                       4.50000000E-01  3.50000000E-01  5.00000000E-01
                      -4.50000000E-01  3.50000000E-01  5.00000000E-01
                      -3.50000000E-01  3.50000000E-01  5.00000000E-01
                      -2.50000000E-01  3.50000000E-01  5.00000000E-01
                      -1.50000000E-01  3.50000000E-01  5.00000000E-01
                      -5.00000000E-02  3.50000000E-01  5.00000000E-01
[...]
                         0.01020    0.01020    0.01020    0.01020    0.01020    0.01020
                         0.01020    0.01020
              wtk21      0.12500    0.12500    0.12500    0.12500    0.12500    0.12500
                         0.12500    0.12500
              wtk22      0.05556    0.05556    0.05556    0.05556    0.05556    0.05556
                         0.05556    0.05556    0.05556    0.05556    0.05556    0.05556
                         0.05556    0.05556    0.05556    0.05556    0.05556    0.05556
              wtk23      0.03125    0.03125    0.03125    0.03125    0.03125    0.03125
                         0.03125    0.03125    0.03125    0.03125    0.03125    0.03125
                         0.03125    0.03125    0.03125    0.03125    0.03125    0.03125
                         0.03125    0.03125    0.03125    0.03125    0.03125    0.03125
                         0.03125    0.03125    0.03125    0.03125    0.03125    0.03125
                         0.03125    0.03125
              wtk24      0.02000    0.02000    0.02000    0.02000    0.02000    0.02000
                         0.02000    0.02000    0.02000    0.02000    0.02000    0.02000
                         0.02000    0.02000    0.02000    0.02000    0.02000    0.02000
                         0.02000    0.02000    0.02000    0.02000    0.02000    0.02000
                         0.02000    0.02000    0.02000    0.02000    0.02000    0.02000
                         0.02000    0.02000    0.02000    0.02000    0.02000    0.02000
                         0.02000    0.02000    0.02000    0.02000    0.02000    0.02000
                         0.02000    0.02000    0.02000    0.02000    0.02000    0.02000
                         0.02000    0.02000
              wtk25      0.01389    0.01389    0.01389    0.01389    0.01389    0.01389
                         0.01389    0.01389    0.01389    0.01389    0.01389    0.01389
                         0.01389    0.01389    0.01389    0.01389    0.01389    0.01389
                         0.01389    0.01389    0.01389    0.01389    0.01389    0.01389
                         0.01389    0.01389    0.01389    0.01389    0.01389    0.01389
                         0.01389    0.01389    0.01389    0.01389    0.01389    0.01389
                         0.01389    0.01389    0.01389    0.01389    0.01389    0.01389
                         0.01389    0.01389    0.01389    0.01389    0.01389    0.01389
                         0.01389    0.01389
              wtk26      0.01020    0.01020    0.01020    0.01020    0.01020    0.01020
                         0.01020    0.01020    0.01020    0.01020    0.01020    0.01020
                         0.01020    0.01020    0.01020    0.01020    0.01020    0.01020
                         0.01020    0.01020    0.01020    0.01020    0.01020    0.01020
                         0.01020    0.01020    0.01020    0.01020    0.01020    0.01020
                         0.01020    0.01020    0.01020    0.01020    0.01020    0.01020
                         0.01020    0.01020    0.01020    0.01020    0.01020    0.01020
                         0.01020    0.01020    0.01020    0.01020    0.01020    0.01020
                         0.01020    0.01020
              wtk31      0.12500    0.12500    0.12500    0.12500    0.12500    0.12500
                         0.12500    0.12500
              wtk32      0.05556    0.05556    0.05556    0.05556    0.05556    0.05556
                         0.05556    0.05556    0.05556    0.05556    0.05556    0.05556
                         0.05556    0.05556    0.05556    0.05556    0.05556    0.05556
              wtk33      0.03125    0.03125    0.03125    0.03125    0.03125    0.03125
                         0.03125    0.03125    0.03125    0.03125    0.03125    0.03125
                         0.03125    0.03125    0.03125    0.03125    0.03125    0.03125
                         0.03125    0.03125    0.03125    0.03125    0.03125    0.03125
                         0.03125    0.03125    0.03125    0.03125    0.03125    0.03125
                         0.03125    0.03125
              wtk34      0.02000    0.02000    0.02000    0.02000    0.02000    0.02000
                         0.02000    0.02000    0.02000    0.02000    0.02000    0.02000
                         0.02000    0.02000    0.02000    0.02000    0.02000    0.02000
                         0.02000    0.02000    0.02000    0.02000    0.02000    0.02000
                         0.02000    0.02000    0.02000    0.02000    0.02000    0.02000
                         0.02000    0.02000    0.02000    0.02000    0.02000    0.02000
                         0.02000    0.02000    0.02000    0.02000    0.02000    0.02000
                         0.02000    0.02000    0.02000    0.02000    0.02000    0.02000
                         0.02000    0.02000
              wtk35      0.01389    0.01389    0.01389    0.01389    0.01389    0.01389
                         0.01389    0.01389    0.01389    0.01389    0.01389    0.01389
                         0.01389    0.01389    0.01389    0.01389    0.01389    0.01389
                         0.01389    0.01389    0.01389    0.01389    0.01389    0.01389
                         0.01389    0.01389    0.01389    0.01389    0.01389    0.01389
                         0.01389    0.01389    0.01389    0.01389    0.01389    0.01389
                         0.01389    0.01389    0.01389    0.01389    0.01389    0.01389
                         0.01389    0.01389    0.01389    0.01389    0.01389    0.01389
                         0.01389    0.01389
              wtk36      0.01020    0.01020    0.01020    0.01020    0.01020    0.01020
                         0.01020    0.01020    0.01020    0.01020    0.01020    0.01020
                         0.01020    0.01020    0.01020    0.01020    0.01020    0.01020
                         0.01020    0.01020    0.01020    0.01020    0.01020    0.01020
                         0.01020    0.01020    0.01020    0.01020    0.01020    0.01020
                         0.01020    0.01020    0.01020    0.01020    0.01020    0.01020
                         0.01020    0.01020    0.01020    0.01020    0.01020    0.01020
                         0.01020    0.01020    0.01020    0.01020    0.01020    0.01020
                         0.01020    0.01020
              wtk41      0.12500    0.12500    0.12500    0.12500    0.12500    0.12500
                         0.12500    0.12500
              wtk42      0.05556    0.05556    0.05556    0.05556    0.05556    0.05556
                         0.05556    0.05556    0.05556    0.05556    0.05556    0.05556
                         0.05556    0.05556    0.05556    0.05556    0.05556    0.05556
              wtk43      0.03125    0.03125    0.03125    0.03125    0.03125    0.03125
                         0.03125    0.03125    0.03125    0.03125    0.03125    0.03125
                         0.03125    0.03125    0.03125    0.03125    0.03125    0.03125
                         0.03125    0.03125    0.03125    0.03125    0.03125    0.03125
                         0.03125    0.03125    0.03125    0.03125    0.03125    0.03125
                         0.03125    0.03125
              wtk44      0.02000    0.02000    0.02000    0.02000    0.02000    0.02000
                         0.02000    0.02000    0.02000    0.02000    0.02000    0.02000
                         0.02000    0.02000    0.02000    0.02000    0.02000    0.02000
                         0.02000    0.02000    0.02000    0.02000    0.02000    0.02000
                         0.02000    0.02000    0.02000    0.02000    0.02000    0.02000
                         0.02000    0.02000    0.02000    0.02000    0.02000    0.02000
                         0.02000    0.02000    0.02000    0.02000    0.02000    0.02000
                         0.02000    0.02000    0.02000    0.02000    0.02000    0.02000
                         0.02000    0.02000
              wtk45      0.01389    0.01389    0.01389    0.01389    0.01389    0.01389
                         0.01389    0.01389    0.01389    0.01389    0.01389    0.01389
                         0.01389    0.01389    0.01389    0.01389    0.01389    0.01389
                         0.01389    0.01389    0.01389    0.01389    0.01389    0.01389
                         0.01389    0.01389    0.01389    0.01389    0.01389    0.01389
                         0.01389    0.01389    0.01389    0.01389    0.01389    0.01389
                         0.01389    0.01389    0.01389    0.01389    0.01389    0.01389
                         0.01389    0.01389    0.01389    0.01389    0.01389    0.01389
                         0.01389    0.01389
              wtk46      0.01020    0.01020    0.01020    0.01020    0.01020    0.01020
                         0.01020    0.01020    0.01020    0.01020    0.01020    0.01020
                         0.01020    0.01020    0.01020    0.01020    0.01020    0.01020
                         0.01020    0.01020    0.01020    0.01020    0.01020    0.01020
                         0.01020    0.01020    0.01020    0.01020    0.01020    0.01020
                         0.01020    0.01020    0.01020    0.01020    0.01020    0.01020
                         0.01020    0.01020    0.01020    0.01020    0.01020    0.01020
                         0.01020    0.01020    0.01020    0.01020    0.01020    0.01020
                         0.01020    0.01020
              wtk51      0.12500    0.12500    0.12500    0.12500    0.12500    0.12500
                         0.12500    0.12500
              wtk52      0.05556    0.05556    0.05556    0.05556    0.05556    0.05556
                         0.05556    0.05556    0.05556    0.05556    0.05556    0.05556
                         0.05556    0.05556    0.05556    0.05556    0.05556    0.05556
              wtk53      0.03125    0.03125    0.03125    0.03125    0.03125    0.03125
                         0.03125    0.03125    0.03125    0.03125    0.03125    0.03125
                         0.03125    0.03125    0.03125    0.03125    0.03125    0.03125
                         0.03125    0.03125    0.03125    0.03125    0.03125    0.03125
                         0.03125    0.03125    0.03125    0.03125    0.03125    0.03125
                         0.03125    0.03125
              wtk54      0.02000    0.02000    0.02000    0.02000    0.02000    0.02000
                         0.02000    0.02000    0.02000    0.02000    0.02000    0.02000
                         0.02000    0.02000    0.02000    0.02000    0.02000    0.02000
                         0.02000    0.02000    0.02000    0.02000    0.02000    0.02000
                         0.02000    0.02000    0.02000    0.02000    0.02000    0.02000
                         0.02000    0.02000    0.02000    0.02000    0.02000    0.02000
                         0.02000    0.02000    0.02000    0.02000    0.02000    0.02000
                         0.02000    0.02000    0.02000    0.02000    0.02000    0.02000
                         0.02000    0.02000
              wtk55      0.01389    0.01389    0.01389    0.01389    0.01389    0.01389
                         0.01389    0.01389    0.01389    0.01389    0.01389    0.01389
                         0.01389    0.01389    0.01389    0.01389    0.01389    0.01389
                         0.01389    0.01389    0.01389    0.01389    0.01389    0.01389
                         0.01389    0.01389    0.01389    0.01389    0.01389    0.01389
                         0.01389    0.01389    0.01389    0.01389    0.01389    0.01389
                         0.01389    0.01389    0.01389    0.01389    0.01389    0.01389
                         0.01389    0.01389    0.01389    0.01389    0.01389    0.01389
                         0.01389    0.01389
              wtk56      0.01020    0.01020    0.01020    0.01020    0.01020    0.01020
                         0.01020    0.01020    0.01020    0.01020    0.01020    0.01020
                         0.01020    0.01020    0.01020    0.01020    0.01020    0.01020
                         0.01020    0.01020    0.01020    0.01020    0.01020    0.01020
                         0.01020    0.01020    0.01020    0.01020    0.01020    0.01020
                         0.01020    0.01020    0.01020    0.01020    0.01020    0.01020
                         0.01020    0.01020    0.01020    0.01020    0.01020    0.01020
                         0.01020    0.01020    0.01020    0.01020    0.01020    0.01020
                         0.01020    0.01020
              wtk61      0.12500    0.12500    0.12500    0.12500    0.12500    0.12500
                         0.12500    0.12500
              wtk62      0.05556    0.05556    0.05556    0.05556    0.05556    0.05556
                         0.05556    0.05556    0.05556    0.05556    0.05556    0.05556
                         0.05556    0.05556    0.05556    0.05556    0.05556    0.05556
              wtk63      0.03125    0.03125    0.03125    0.03125    0.03125    0.03125
                         0.03125    0.03125    0.03125    0.03125    0.03125    0.03125
                         0.03125    0.03125    0.03125    0.03125    0.03125    0.03125
                         0.03125    0.03125    0.03125    0.03125    0.03125    0.03125
                         0.03125    0.03125    0.03125    0.03125    0.03125    0.03125
                         0.03125    0.03125
              wtk64      0.02000    0.02000    0.02000    0.02000    0.02000    0.02000
                         0.02000    0.02000    0.02000    0.02000    0.02000    0.02000
                         0.02000    0.02000    0.02000    0.02000    0.02000    0.02000
                         0.02000    0.02000    0.02000    0.02000    0.02000    0.02000
                         0.02000    0.02000    0.02000    0.02000    0.02000    0.02000
                         0.02000    0.02000    0.02000    0.02000    0.02000    0.02000
                         0.02000    0.02000    0.02000    0.02000    0.02000    0.02000
                         0.02000    0.02000    0.02000    0.02000    0.02000    0.02000
                         0.02000    0.02000
              wtk65      0.01389    0.01389    0.01389    0.01389    0.01389    0.01389
                         0.01389    0.01389    0.01389    0.01389    0.01389    0.01389
                         0.01389    0.01389    0.01389    0.01389    0.01389    0.01389
                         0.01389    0.01389    0.01389    0.01389    0.01389    0.01389
                         0.01389    0.01389    0.01389    0.01389    0.01389    0.01389
                         0.01389    0.01389    0.01389    0.01389    0.01389    0.01389
                         0.01389    0.01389    0.01389    0.01389    0.01389    0.01389
                         0.01389    0.01389    0.01389    0.01389    0.01389    0.01389
                         0.01389    0.01389
              wtk66      0.01020    0.01020    0.01020    0.01020    0.01020    0.01020
                         0.01020    0.01020    0.01020    0.01020    0.01020    0.01020
                         0.01020    0.01020    0.01020    0.01020    0.01020    0.01020
                         0.01020    0.01020    0.01020    0.01020    0.01020    0.01020
                         0.01020    0.01020    0.01020    0.01020    0.01020    0.01020
                         0.01020    0.01020    0.01020    0.01020    0.01020    0.01020
                         0.01020    0.01020    0.01020    0.01020    0.01020    0.01020
                         0.01020    0.01020    0.01020    0.01020    0.01020    0.01020
                         0.01020    0.01020
                       outvars : Printing only first  50 k-points.
           xangst      1.5801000000E+00  9.1227116034E-01  0.0000000000E+00
                       1.5801000000E+00 -9.1227116034E-01 -1.5850000000E+00
                       1.5801000000E+00 -9.1227116034E-01  1.5850000000E+00
            xcart      2.9859562626E+00  1.7239426520E+00  0.0000000000E+00
                       2.9859562626E+00 -1.7239426520E+00 -2.9952159206E+00
                       2.9859562626E+00 -1.7239426520E+00  2.9952159206E+00
             xred      3.3333333333E-01  6.6666666667E-01  0.0000000000E+00
                       6.6666666667E-01  3.3333333333E-01 -7.9250000000E-02
                       6.6666666667E-01  3.3333333333E-01  7.9250000000E-02
            znucl       42.00000   16.00000

- Timing analysis has been suppressed with timopt=0

 Suggested references for the acknowledgment of ABINIT usage.

 Calculation completed.
.Delivered  29 WARNINGs and   0 COMMENTs to log file.