.Version 9.10.3 of ABINIT

 ABINIT is a project of the Universite Catholique de Louvain,
 Corning Inc. and other collaborators, see ~abinit/doc/developers/contributors.txt .
 acknowledgments of the ABINIT effort.

.Starting date : Fri  9 May 2025.
- ( at 15h31 )

- input  file    -> mos2_exp_relx_struc.abi
- output file    -> mos2_exp_relx_struc.abo
- root for input  files -> mos2_exp_relx_struci
- root for output files -> mos2_exp_relx_struco

 DATASET    1 : space group P1 (#  1); Bravais aP (primitive triclinic)
     intxc =       0    ionmov =       2      iscf =       7    lmnmax =       6
     lnmax =       6     mgfft =     320  mpssoang =       3    mqgrid =   15979
     natom =       3  nloc_mem =       1    nspden =       1   nspinor =       1
    nsppol =       1      nsym =       1    n1xccc =    2501    ntypat =       2
    occopt =       1   xclevel =       2
-    mband =          14        mffmem =           1         mkmem =           1
       mpw =       46230          nfft =      933120          nkpt =          10
  Rough estimation (10% accuracy) of disk space for files :

 DATASET    2 : space group P1 (#  1); Bravais aP (primitive triclinic)
     intxc =       0    ionmov =       2      iscf =       7    lmnmax =       6
     lnmax =       6     mgfft =     320  mpssoang =       3    mqgrid =   15979
     natom =       3  nloc_mem =       1    nspden =       1   nspinor =       1
    nsppol =       1      nsym =       1    n1xccc =    2501    ntypat =       2
    occopt =       1   xclevel =       2
-    mband =          14        mffmem =           1         mkmem =           1
       mpw =       46264          nfft =      933120          nkpt =          32
  Rough estimation (10% accuracy) of disk space for files :

------------- Echo of variables that govern the present computation ------------
-
- outvars: echo of selected default values
-   iomode0 =  0 , fftalg0 =512 , wfoptalg0 =  0
-
- outvars: echo of global parameters not present in the input file
-  max_nthreads =    0
-
 -outvars: echo values of preprocessed input variables --------
            acell      5.9719125251E+00  5.9719125251E+00  3.7794522658E+01 Bohr
              amu      9.59400000E+01  3.20660000E+01
      chksymbreak           0
          dilatmx      1.05000000E+00
             ecut      8.00000000E+01 Hartree
           ecutsm      5.00000000E-01 Hartree
-          fftalg         512
           ionmov           2
           istwfk1       4    0    5    0    0    0    0    8    0    9
              ixc          11
           jdtset        1    2
              kpt1     0.00000000E+00  0.00000000E+00  5.00000000E-01
                       2.50000000E-01  0.00000000E+00  5.00000000E-01
                       5.00000000E-01  0.00000000E+00  5.00000000E-01
                       0.00000000E+00  2.50000000E-01  5.00000000E-01
                       2.50000000E-01  2.50000000E-01  5.00000000E-01
                       5.00000000E-01  2.50000000E-01  5.00000000E-01
                      -2.50000000E-01  2.50000000E-01  5.00000000E-01
                       0.00000000E+00  5.00000000E-01  5.00000000E-01
                       2.50000000E-01  5.00000000E-01  5.00000000E-01
                       5.00000000E-01  5.00000000E-01  5.00000000E-01
              kpt2     6.25000000E-02  6.25000000E-02  5.00000000E-01
                       1.87500000E-01  6.25000000E-02  5.00000000E-01
                       3.12500000E-01  6.25000000E-02  5.00000000E-01
                       4.37500000E-01  6.25000000E-02  5.00000000E-01
                      -4.37500000E-01  6.25000000E-02  5.00000000E-01
                      -3.12500000E-01  6.25000000E-02  5.00000000E-01
                      -1.87500000E-01  6.25000000E-02  5.00000000E-01
                      -6.25000000E-02  6.25000000E-02  5.00000000E-01
                       6.25000000E-02  1.87500000E-01  5.00000000E-01
                       1.87500000E-01  1.87500000E-01  5.00000000E-01
                       3.12500000E-01  1.87500000E-01  5.00000000E-01
                       4.37500000E-01  1.87500000E-01  5.00000000E-01
                      -4.37500000E-01  1.87500000E-01  5.00000000E-01
                      -3.12500000E-01  1.87500000E-01  5.00000000E-01
                      -1.87500000E-01  1.87500000E-01  5.00000000E-01
                      -6.25000000E-02  1.87500000E-01  5.00000000E-01
                       6.25000000E-02  3.12500000E-01  5.00000000E-01
                       1.87500000E-01  3.12500000E-01  5.00000000E-01
                       3.12500000E-01  3.12500000E-01  5.00000000E-01
                       4.37500000E-01  3.12500000E-01  5.00000000E-01
                      -4.37500000E-01  3.12500000E-01  5.00000000E-01
                      -3.12500000E-01  3.12500000E-01  5.00000000E-01
                      -1.87500000E-01  3.12500000E-01  5.00000000E-01
                      -6.25000000E-02  3.12500000E-01  5.00000000E-01
                       6.25000000E-02  4.37500000E-01  5.00000000E-01
                       1.87500000E-01  4.37500000E-01  5.00000000E-01
                       3.12500000E-01  4.37500000E-01  5.00000000E-01
                       4.37500000E-01  4.37500000E-01  5.00000000E-01
                      -4.37500000E-01  4.37500000E-01  5.00000000E-01
                      -3.12500000E-01  4.37500000E-01  5.00000000E-01
                      -1.87500000E-01  4.37500000E-01  5.00000000E-01
                      -6.25000000E-02  4.37500000E-01  5.00000000E-01
         kptrlatt1       4    0    0      0    4    0      0    0    1
         kptrlatt2       8    0    0      0    8    0      0    0    1
          kptrlen1     2.38876501E+01
          kptrlen2     4.77753002E+01
P           mkmem           1
            natom           3
            nband1         14
            nband2         14
           ndtset           2
            ngfft          54      54     320
             nkpt1         10
             nkpt2         32
            nstep         150
             nsym           1
            ntime        1000
           ntypat           2
              occ1     2.000000  2.000000  2.000000  2.000000  2.000000  2.000000
                       2.000000  2.000000  2.000000  2.000000  2.000000  2.000000
                       2.000000  0.000000
              occ2     2.000000  2.000000  2.000000  2.000000  2.000000  2.000000
                       2.000000  2.000000  2.000000  2.000000  2.000000  2.000000
                       2.000000  0.000000
            rprim      5.0000000000E-01 -8.6602540378E-01  0.0000000000E+00
                       5.0000000000E-01  8.6602540378E-01  0.0000000000E+00
                       0.0000000000E+00  0.0000000000E+00  1.0000000000E+00
           shiftk1     0.00000000E+00  0.00000000E+00  5.00000000E-01
           shiftk2     5.00000000E-01  5.00000000E-01  5.00000000E-01
          spgroup           1
           toldfe      1.00000000E-10 Hartree
            typat      1  2  2
              wtk1       0.06250    0.12500    0.06250    0.12500    0.12500    0.12500
                         0.12500    0.06250    0.12500    0.06250
              wtk2       0.03125    0.03125    0.03125    0.03125    0.03125    0.03125
                         0.03125    0.03125    0.03125    0.03125    0.03125    0.03125
                         0.03125    0.03125    0.03125    0.03125    0.03125    0.03125
                         0.03125    0.03125    0.03125    0.03125    0.03125    0.03125
                         0.03125    0.03125    0.03125    0.03125    0.03125    0.03125
                         0.03125    0.03125
           xangst      1.5801000000E+00  9.1227116034E-01  0.0000000000E+00
                       1.5801000000E+00 -9.1227116034E-01 -1.5850000000E+00
                       1.5801000000E+00 -9.1227116034E-01  1.5850000000E+00
            xcart      2.9859562626E+00  1.7239426520E+00  0.0000000000E+00
                       2.9859562626E+00 -1.7239426520E+00 -2.9952159206E+00
                       2.9859562626E+00 -1.7239426520E+00  2.9952159206E+00
             xred      3.3333333333E-01  6.6666666667E-01  0.0000000000E+00
                       6.6666666667E-01  3.3333333333E-01 -7.9250000000E-02
                       6.6666666667E-01  3.3333333333E-01  7.9250000000E-02
            znucl       42.00000   16.00000

 chkinp: Checking input parameters for consistency, jdtset=   1.

 chkinp: Checking input parameters for consistency, jdtset=   2.

== DATASET  1 ==================================================================
-   mpi_nproc: 80, omp_nthreads: -1 (-1 if OMP is not activated)
-    --> not optimal distribution: autoparal keyword recommended in input file <--

--- !DatasetInfo
iteration_state: {dtset: 1, }
dimensions: {natom: 3, nkpt: 10, mband: 14, nsppol: 1, nspinor: 1, nspden: 1, mpw: 46230, }
cutoff_energies: {ecut:  80.0, pawecutdg:  -1.0, }
electrons: {nelect:   2.60000000E+01, charge:   0.00000000E+00, occopt:   1.00000000E+00, tsmear:   1.00000000E-02, }
meta: {optdriver: 0, ionmov: 2, optcell: 0, iscf: 7, paral_kgb: 0, }
...

 Real(R)+Recip(G) space primitive vectors, cartesian coordinates (Bohr,Bohr^-1):
 R(1)=  2.9859563 -5.1718280  0.0000000  G(1)=  0.1674505 -0.0966776  0.0000000
 R(2)=  2.9859563  5.1718280  0.0000000  G(2)=  0.1674505  0.0966776  0.0000000
 R(3)=  0.0000000  0.0000000 37.7945227  G(3)=  0.0000000  0.0000000  0.0264589
 Unit cell volume ucvol=  1.1673104E+03 bohr^3
 Angles (23,13,12)=  9.00000000E+01  9.00000000E+01  1.20000000E+02 degrees

 getcut: wavevector=  0.0000  0.0000  0.0000  ngfft=  54  54 320
         ecut(hartree)=     88.200   => boxcut(ratio)=   2.00273

--- Pseudopotential description ------------------------------------------------
- pspini: atom type   1  psp file is ../persudo/Mo.psp8
- pspatm: opening atomic psp file    ../persudo/Mo.psp8
- Mo    ONCVPSP-3.2.3.1  r_core=   1.45541   1.45541   1.35488
- 42.00000  14.00000    170510                znucl, zion, pspdat
    8   11    2    4       600   0.00000      pspcod,pspxc,lmax,lloc,mmax,r2well
    5.99000000000000    3.00000000000000    0.00000000000000   rchrg,fchrg,qchrg
     nproj     2     2     2
     extension_switch     1
  pspatm : epsatm=   15.95693586
         --- l  ekb(1:nproj) -->
             0   13.833287    1.350687
             1    8.015347    1.134034
             2    2.765699    0.969071
 pspatm: atomic psp has been read  and splines computed

- pspini: atom type   2  psp file is ../persudo/S.psp8
- pspatm: opening atomic psp file    ../persudo/S.psp8
- S     ONCVPSP-4.0.1  r_core=   1.45687   1.45687   1.45687
- 16.00000   6.00000    220131                znucl, zion, pspdat
    8   11    2    4       600   0.00000      pspcod,pspxc,lmax,lloc,mmax,r2well
    5.99000000000000    6.00000000000000    0.00000000000000   rchrg,fchrg,qchrg
     nproj     2     2     2
     extension_switch     1
  pspatm : epsatm=    9.04179351
         --- l  ekb(1:nproj) -->
             0    6.774234    0.542270
             1    3.022426    0.737017
             2   -5.033160   -1.531047
 pspatm: atomic psp has been read  and splines computed

[...]
...

 Real(R)+Recip(G) space primitive vectors, cartesian coordinates (Bohr,Bohr^-1):
 R(1)=  2.9859563 -5.1718280  0.0000000  G(1)=  0.1674505 -0.0966776  0.0000000
 R(2)=  2.9859563  5.1718280  0.0000000  G(2)=  0.1674505  0.0966776  0.0000000
 R(3)=  0.0000000  0.0000000 37.7945227  G(3)=  0.0000000  0.0000000  0.0264589
 Unit cell volume ucvol=  1.1673104E+03 bohr^3
 Angles (23,13,12)=  9.00000000E+01  9.00000000E+01  1.20000000E+02 degrees

 getcut: wavevector=  0.0000  0.0000  0.0000  ngfft=  54  54 320
         ecut(hartree)=     88.200   => boxcut(ratio)=   2.00273

_setup2: Arith. and geom. avg. npw (full set) are   46184.188   46184.162

=== [ionmov= 2] Broyden-Fletcher-Goldfard-Shanno method (forces)

[...]

 scprqt:  WARNING -
  nstep=  150 was not enough SCF cycles to converge;
  maximum energy difference=  1.681E-09 exceeds toldfe=  1.000E-10

[...]

--- Iteration: (   5/1000) Internal Cycle: (1/1)

---SELF-CONSISTENT-FIELD CONVERGENCE--------------------------------------------

--- !BeginCycle
iteration_state: {dtset: 2, itime: 5, icycle: 1, }
solver: {iscf: 7, nstep: 150, nline: 4, wfoptalg: 0, }
tolerances: {toldfe: 1.00E-10, }
...

     iter   Etot(hartree)      deltaE(h)  residm     vres2
 ETOT  1  -92.383552406382    -9.238E+01 3.585E-09 2.567E+01
 ETOT  2  -92.383552407258    -8.756E-10 6.615E-10 3.103E-02
 ETOT  3  -92.383551708166     6.991E-07 1.088E-08 7.575E-02
 ETOT  4  -92.383551991553    -2.834E-07 1.921E-08 9.073E-02
 ETOT  5  -92.383552313689    -3.221E-07 8.435E-10 2.056E-02
 ETOT  6  -92.383552654638    -3.409E-07 1.855E-09 1.587E-02
 ETOT  7  -92.383552644425     1.021E-08 1.430E-10 3.299E-03
 ETOT  8  -92.383552632881     1.154E-08 8.257E-11 3.959E-03
 ETOT  9  -92.383552646762    -1.388E-08 5.341E-11 1.287E-03
 ETOT 10  -92.383552656527    -9.765E-09 9.561E-11 2.397E-03
 ETOT 11  -92.383552656773    -2.462E-10 1.291E-10 1.114E-03
 ETOT 12  -92.383552656702     7.103E-11 2.087E-11 1.354E-03
 ETOT 13  -92.383552656741    -3.870E-11 5.498E-11 6.626E-04

 At SCF step   13, etot is converged :
  for the second time, diff in etot=  3.870E-11 < toldfe=  1.000E-10

[...]

--- !ResultsGS
iteration_state: {dtset: 2, itime: 5, icycle: 1, }
comment   : Summary of ground state results
lattice_vectors:
- [  2.9859563,  -5.1718280,   0.0000000, ]
- [  2.9859563,   5.1718280,   0.0000000, ]
- [  0.0000000,   0.0000000,  37.7945227, ]
lattice_lengths: [   5.97191,    5.97191,   37.79452, ]
lattice_angles: [ 90.000,  90.000, 120.000, ] # degrees, (23, 13, 12)
lattice_volume:   1.1673104E+03
convergence: {deltae: -3.870E-11, res2:  6.626E-04, residm:  5.498E-11, diffor: null, }
etotal    :  -9.23835527E+01
entropy   :   0.00000000E+00
fermie    :  -6.33671458E-02
cartesian_stress_tensor: # hartree/bohr^3
- [ -2.25191447E-05,  -3.93339770E-13,  -1.38957483E-11, ]
- [ -3.93339770E-13,  -2.26070374E-05,  -1.49992721E-12, ]
- [ -1.38957483E-11,  -1.49992721E-12,   1.48466714E-08, ]
pressure_GPa:   4.4241E-01
xred      :
- [  3.3334E-01,   6.6666E-01,   9.0027E-09, Mo]
- [  6.6666E-01,   3.3334E-01,  -7.8567E-02,  S]
- [  6.6666E-01,   3.3334E-01,   7.8567E-02,  S]
cartesian_forces: # hartree/bohr
- [  3.75308579E-10,   2.01068485E-06,  -1.70915665E-07, ]
- [ -1.05168808E-09,  -1.00529675E-06,  -5.98916466E-06, ]
- [  6.76379504E-10,  -1.00538810E-06,   6.16008033E-06, ]
force_length_stats: {min:   2.01793604E-06, max:   6.24158596E-06, mean:   4.77749051E-06, }
...

 Integrated electronic density in atomic spheres:
 Atom  Sphere_radius  Integrated_density
    1        2.00000         10.49892118
    2        2.00000          3.92926134
    3        2.00000          3.92926155

---OUTPUT-----------------------------------------------------------------------

 Cartesian coordinates (xcart) [bohr]
  2.98595626225116E+00  1.72389648396257E+00  3.40252458629467E-07
  2.98595628673461E+00 -1.72391956557047E+00 -2.96939930113724E+00
  2.98595623873205E+00 -1.72391957036801E+00  2.96939896088479E+00
 Reduced coordinates (xred)
  3.33337796692998E-01  6.66662203199350E-01  9.00269231367129E-09
  6.66664438773954E-01  3.33335569317926E-01 -7.85669216682452E-02
  6.66664431199715E-01  3.33335560816057E-01  7.85669126655529E-02
 Cartesian forces (fcart) [Ha/bohr]; max,rms= 6.16008E-06 2.97975E-06 (free atoms)
  3.75308579325571E-10  2.01068484819890E-06 -1.70915665032770E-07
 -1.05168808355361E-09 -1.00529675196264E-06 -5.98916466213316E-06
  6.76379504228043E-10 -1.00538809623625E-06  6.16008032716593E-06
 Gradient of E wrt nuclear positions in reduced coordinates (gred)
  1.03977954534725E-05 -1.04000367634782E-05  6.45967597463907E-06
 -5.19608155118438E-06  5.20236214042310E-06  2.26357619523765E-04
 -5.20171390228813E-06  5.19767462305508E-06 -2.32817295498404E-04
 Total energy (etotal) [Ha]= -9.23835526567406E+01

 Difference of energy with previous step (new-old):
           Absolute (Ha)=-2.05766E-08
           Relative     =-2.22730E-10

 At Broyd/MD step   5, gradients are converged :
  max grad (force/stress) = 6.1601E-06 < tolmxf= 5.0000E-05 ha/bohr (free atoms)

 ----iterations are completed or convergence reached----

 Mean square residual over all n,k,spin=   70.906E-14; max=  54.982E-12
 reduced coordinates (array xred) for    3 atoms
       0.333337796693      0.666662203199      0.000000009003
       0.666664438774      0.333335569318     -0.078566921668
       0.666664431200      0.333335560816      0.078566912666
 rms dE/dt=  1.0843E-04; max dE/dt=  2.2632E-04; dE/dt below (all hartree)
    1       0.000010415117     -0.000010415314      0.000006421963
    2      -0.000005178760      0.000005187085      0.000226319907
    3      -0.000005184393      0.000005182397     -0.000232855008

 cartesian coordinates (angstrom) at end:
    1      1.58009999982990     0.91224672928143     0.00000018005385
    2      1.58010001278598    -0.91225894354227    -1.57133843336490
    3      1.58009998738412    -0.91225894608102     1.57133825331106

 cartesian forces (hartree/bohr) at end:
    1      0.00000000037531     0.00000201068485    -0.00000017091567
    2     -0.00000000105169    -0.00000100529675    -0.00000598916466
    3      0.00000000067638    -0.00000100538810     0.00000616008033
 frms,max,avg= 2.9797498E-06 6.1600803E-06  -3.423E-10  3.152E-09  9.978E-10 h/b

 cartesian forces (eV/Angstrom) at end:
    1      0.00000001929914     0.00010339356332    -0.00000878883613
    2     -0.00000005407997    -0.00005169443311    -0.00030797520372
    3      0.00000003478083    -0.00005169913022     0.00031676403985
 frms,max,avg= 1.5322488E-04 3.1676404E-04  -1.760E-08  1.621E-07  5.131E-08 e/A
 length scales=  5.971912525145  5.971912525145 37.794522657713 bohr
              =  3.160200000000  3.160200000000 20.000000000000 angstroms
 prteigrs : about to open file mos2_exp_relx_struco_DS2_EIG
 Fermi (or HOMO) energy (hartree) =  -0.06337   Average Vxc (hartree)=  -0.14313
 Eigenvalues (hartree) for nkpt=  32  k points:
 kpt#   1, nband= 14, wtk=  0.03125, kpt=  0.0625  0.0625  0.5000 (reduced coord)
  -2.29814   -1.34812   -1.34143   -1.34016   -0.57475   -0.53112   -0.26214   -0.16944
  -0.15235   -0.14893   -0.12617   -0.10080   -0.06777    0.03401
 prteigrs : prtvol=0 or 1, do not print more k-points.

--- !EnergyTerms
iteration_state     : {dtset: 2, itime: 5, icycle: 1, }
comment             : Components of total free energy in Hartree
kinetic             :  2.99928678146799E+01
hartree             :  2.82526862938749E+02
xc                  : -1.66133455787079E+01
Ewald energy        :  2.06307575976458E+02
psp_core            :  7.58198985105847E-01
local_psp           : -6.06967438139721E+02
non_local_psp       :  1.16117253466958E+01
total_energy        : -9.23835526567406E+01
total_energy_eV     : -2.51388431369309E+03
band_energy         : -1.71075828620648E+01
...

 rms coord change=  3.2202E-04   atom, delta coord (reduced):
     1        0.000004463360     -0.000004463467      0.000000009003
     2       -0.000002227893      0.000002235985      0.000683078332
     3       -0.000002235467      0.000002227483     -0.000683087334

 Cartesian components of stress tensor (hartree/bohr^3)
  sigma(1 1)= -2.25191447E-05  sigma(3 2)= -1.49992721E-12
  sigma(2 2)= -2.26070374E-05  sigma(3 1)= -1.38957483E-11
  sigma(3 3)=  1.48466714E-08  sigma(2 1)= -3.93339770E-13

-Cartesian components of stress tensor (GPa)         [Pressure=  4.4241E-01 GPa]
- sigma(1 1)= -6.62535998E-01  sigma(3 2)= -4.41293747E-08
- sigma(2 2)= -6.65121892E-01  sigma(3 1)= -4.08826961E-07
- sigma(3 3)=  4.36804079E-04  sigma(2 1)= -1.15724536E-08

== END DATASET(S) ==============================================================

 -outvars: echo values of variables after computation  --------
            acell      5.9719125251E+00  5.9719125251E+00  3.7794522658E+01 Bohr
              amu      9.59400000E+01  3.20660000E+01
      chksymbreak           0
          dilatmx      1.05000000E+00
             ecut      8.00000000E+01 Hartree
           ecutsm      5.00000000E-01 Hartree
           etotal1    -9.2385641522E+01
           etotal2    -9.2383552657E+01
            fcart1    -6.0021547005E-10  1.8828509966E-09 -1.9629754653E-07
                       7.7248823941E-09  2.8416547385E-09  4.9197021742E-05
                      -7.1246669241E-09 -4.7245057351E-09 -4.9000724196E-05
            fcart2     3.7530857933E-10  2.0106848482E-06 -1.7091566503E-07
                      -1.0516880836E-09 -1.0052967520E-06 -5.9891646621E-06
                       6.7637950423E-10 -1.0053880962E-06  6.1600803272E-06
-          fftalg         512
           ionmov           2
           istwfk1       4    0    5    0    0    0    0    8    0    9
              ixc          11
           jdtset        1    2
              kpt1     0.00000000E+00  0.00000000E+00  5.00000000E-01
                       2.50000000E-01  0.00000000E+00  5.00000000E-01
                       5.00000000E-01  0.00000000E+00  5.00000000E-01
                       0.00000000E+00  2.50000000E-01  5.00000000E-01
                       2.50000000E-01  2.50000000E-01  5.00000000E-01
                       5.00000000E-01  2.50000000E-01  5.00000000E-01
                      -2.50000000E-01  2.50000000E-01  5.00000000E-01
                       0.00000000E+00  5.00000000E-01  5.00000000E-01
                       2.50000000E-01  5.00000000E-01  5.00000000E-01
                       5.00000000E-01  5.00000000E-01  5.00000000E-01
              kpt2     6.25000000E-02  6.25000000E-02  5.00000000E-01
                       1.87500000E-01  6.25000000E-02  5.00000000E-01
                       3.12500000E-01  6.25000000E-02  5.00000000E-01
                       4.37500000E-01  6.25000000E-02  5.00000000E-01
                      -4.37500000E-01  6.25000000E-02  5.00000000E-01
                      -3.12500000E-01  6.25000000E-02  5.00000000E-01
                      -1.87500000E-01  6.25000000E-02  5.00000000E-01
                      -6.25000000E-02  6.25000000E-02  5.00000000E-01
                       6.25000000E-02  1.87500000E-01  5.00000000E-01
                       1.87500000E-01  1.87500000E-01  5.00000000E-01
                       3.12500000E-01  1.87500000E-01  5.00000000E-01
                       4.37500000E-01  1.87500000E-01  5.00000000E-01
                      -4.37500000E-01  1.87500000E-01  5.00000000E-01
                      -3.12500000E-01  1.87500000E-01  5.00000000E-01
                      -1.87500000E-01  1.87500000E-01  5.00000000E-01
                      -6.25000000E-02  1.87500000E-01  5.00000000E-01
                       6.25000000E-02  3.12500000E-01  5.00000000E-01
                       1.87500000E-01  3.12500000E-01  5.00000000E-01
                       3.12500000E-01  3.12500000E-01  5.00000000E-01
                       4.37500000E-01  3.12500000E-01  5.00000000E-01
                      -4.37500000E-01  3.12500000E-01  5.00000000E-01
                      -3.12500000E-01  3.12500000E-01  5.00000000E-01
                      -1.87500000E-01  3.12500000E-01  5.00000000E-01
                      -6.25000000E-02  3.12500000E-01  5.00000000E-01
                       6.25000000E-02  4.37500000E-01  5.00000000E-01
                       1.87500000E-01  4.37500000E-01  5.00000000E-01
                       3.12500000E-01  4.37500000E-01  5.00000000E-01
                       4.37500000E-01  4.37500000E-01  5.00000000E-01
                      -4.37500000E-01  4.37500000E-01  5.00000000E-01
                      -3.12500000E-01  4.37500000E-01  5.00000000E-01
                      -1.87500000E-01  4.37500000E-01  5.00000000E-01
                      -6.25000000E-02  4.37500000E-01  5.00000000E-01
         kptrlatt1       4    0    0      0    4    0      0    0    1
         kptrlatt2       8    0    0      0    8    0      0    0    1
          kptrlen1     2.38876501E+01
          kptrlen2     4.77753002E+01
P           mkmem           1
            natom           3
            nband1         14
            nband2         14
           ndtset           2
            ngfft          54      54     320
             nkpt1         10
             nkpt2         32
            nstep         150
             nsym           1
            ntime        1000
           ntypat           2
              occ1     2.000000  2.000000  2.000000  2.000000  2.000000  2.000000
                       2.000000  2.000000  2.000000  2.000000  2.000000  2.000000
                       2.000000  0.000000
              occ2     2.000000  2.000000  2.000000  2.000000  2.000000  2.000000
                       2.000000  2.000000  2.000000  2.000000  2.000000  2.000000
                       2.000000  0.000000
            rprim      5.0000000000E-01 -8.6602540378E-01  0.0000000000E+00
                       5.0000000000E-01  8.6602540378E-01  0.0000000000E+00
                       0.0000000000E+00  0.0000000000E+00  1.0000000000E+00
           shiftk1     0.00000000E+00  0.00000000E+00  5.00000000E-01
           shiftk2     5.00000000E-01  5.00000000E-01  5.00000000E-01
          spgroup           1
           strten1    -2.0086388467E-05 -2.0086389081E-05  1.9987046557E-07
                       2.5077892748E-11  5.2899259767E-11 -1.0344954848E-11
           strten2    -2.2519144652E-05 -2.2607037403E-05  1.4846671393E-08
                      -1.4999272113E-12 -1.3895748316E-11 -3.9333976983E-13
           toldfe      1.00000000E-10 Hartree
            typat      1  2  2
              wtk1       0.06250    0.12500    0.06250    0.12500    0.12500    0.12500
                         0.12500    0.06250    0.12500    0.06250
              wtk2       0.03125    0.03125    0.03125    0.03125    0.03125    0.03125
                         0.03125    0.03125    0.03125    0.03125    0.03125    0.03125
                         0.03125    0.03125    0.03125    0.03125    0.03125    0.03125
                         0.03125    0.03125    0.03125    0.03125    0.03125    0.03125
                         0.03125    0.03125    0.03125    0.03125    0.03125    0.03125
                         0.03125    0.03125
           xangst1     1.5801000037E+00  9.1227115391E-01  2.2531300958E-07
                       1.5800999398E+00 -9.1227118475E-01 -1.5694744234E+00
                       1.5801000565E+00 -9.1227112950E-01  1.5694741981E+00
           xangst2     1.5800999998E+00  9.1224672928E-01  1.8005384627E-07
                       1.5801000128E+00 -9.1225894354E-01 -1.5713384334E+00
                       1.5800999874E+00 -9.1225894608E-01  1.5713382533E+00
            xcart1     2.9859562696E+00  1.7239426398E+00  4.2577988228E-07
                       2.9859561487E+00 -1.7239426981E+00 -2.9658768328E+00
                       2.9859563694E+00 -1.7239425937E+00  2.9658764071E+00
            xcart2     2.9859562623E+00  1.7238964840E+00  3.4025245863E-07
                       2.9859562867E+00 -1.7239195656E+00 -2.9693993011E+00
                       2.9859562387E+00 -1.7239195704E+00  2.9693989609E+00
             xred1     3.3333333568E-01  6.6666666666E-01  1.1265650479E-08
                       6.6666665206E-01  3.3333330981E-01 -7.8473721171E-02
                       6.6666667892E-01  3.3333335686E-01  7.8473709906E-02
             xred2     3.3333779669E-01  6.6666220320E-01  9.0026923137E-09
                       6.6666443877E-01  3.3333556932E-01 -7.8566921668E-02
                       6.6666443120E-01  3.3333556082E-01  7.8566912666E-02
            znucl       42.00000   16.00000

- Timing analysis has been suppressed with timopt=0

 Suggested references for the acknowledgment of ABINIT usage.

 Calculation completed.
.Delivered   3 WARNINGs and   0 COMMENTs to log file.