.Version 9.10.3 of ABINIT

 ABINIT is a project of the Universite Catholique de Louvain,
 Corning Inc. and other collaborators, see ~abinit/doc/developers/contributors.txt .
 acknowledgments of the ABINIT effort.

.Starting date : Thu  8 May 2025.
- ( at 15h34 )

- input  file    -> mos2_exp_relx_simple.abi
- output file    -> mos2_exp_relx_simple.abo
- root for input  files -> mos2_exp_relx_simplei
- root for output files -> mos2_exp_relx_simpleo

 DATASET   11 : space group P1 (#  1); Bravais aP (primitive triclinic)
     intxc =       0    ionmov =       0      iscf =       7    lmnmax =       6
     lnmax =       6     mgfft =     108  mpssoang =       3    mqgrid =    5381
     natom =       3  nloc_mem =       1    nspden =       1   nspinor =       1
    nsppol =       1      nsym =       1    n1xccc =    2501    ntypat =       2
    occopt =       1   xclevel =       2
-    mband =          14        mffmem =           1         mkmem =           1
       mpw =        1770          nfft =       34992          nkpt =           8
  Rough estimation (10% accuracy) of disk space for files :

[...]

 DATASET   22 : space group P1 (#  1); Bravais aP (primitive triclinic)
     intxc =       0    ionmov =       0      iscf =       7    lmnmax =       6
     lnmax =       6     mgfft =     160  mpssoang =       3    mqgrid =    7609
     natom =       3  nloc_mem =       1    nspden =       1   nspinor =       1
    nsppol =       1      nsym =       1    n1xccc =    2501    ntypat =       2
    occopt =       1   xclevel =       2
-    mband =          14        mffmem =           1         mkmem =           1
       mpw =        5036          nfft =      116640          nkpt =          18
  Rough estimation (10% accuracy) of disk space for files :

------------- Echo of variables that govern the present computation ------------
-
- outvars: echo of selected default values
-   iomode0 =  0 , fftalg0 =512 , wfoptalg0 =  0
-
- outvars: echo of global parameters not present in the input file
-  max_nthreads =    0
-
 -outvars: echo values of preprocessed input variables --------
            acell      5.9719125251E+00  5.9719125251E+00  3.7794522658E+01 Bohr
              amu      9.59400000E+01  3.20660000E+01
      chksymbreak           0
             ecut11    1.00000000E+01 Hartree
             ecut12    1.00000000E+01 Hartree
             ecut21    2.00000000E+01 Hartree
             ecut22    2.00000000E+01 Hartree
-          fftalg         512
              ixc          11
           jdtset       11   12   21   22
              kpt11    1.25000000E-01  1.25000000E-01  5.00000000E-01
                       3.75000000E-01  1.25000000E-01  5.00000000E-01
                      -3.75000000E-01  1.25000000E-01  5.00000000E-01
                      -1.25000000E-01  1.25000000E-01  5.00000000E-01
                       1.25000000E-01  3.75000000E-01  5.00000000E-01
                       3.75000000E-01  3.75000000E-01  5.00000000E-01
                      -3.75000000E-01  3.75000000E-01  5.00000000E-01
                      -1.25000000E-01  3.75000000E-01  5.00000000E-01
              kpt12    8.33333333E-02  8.33333333E-02  5.00000000E-01
                       2.50000000E-01  8.33333333E-02  5.00000000E-01
                       4.16666667E-01  8.33333333E-02  5.00000000E-01
                      -4.16666667E-01  8.33333333E-02  5.00000000E-01
                      -2.50000000E-01  8.33333333E-02  5.00000000E-01
                      -8.33333333E-02  8.33333333E-02  5.00000000E-01
                       8.33333333E-02  2.50000000E-01  5.00000000E-01
                       2.50000000E-01  2.50000000E-01  5.00000000E-01
                       4.16666667E-01  2.50000000E-01  5.00000000E-01
                      -4.16666667E-01  2.50000000E-01  5.00000000E-01
                      -2.50000000E-01  2.50000000E-01  5.00000000E-01
                      -8.33333333E-02  2.50000000E-01  5.00000000E-01
                       8.33333333E-02  4.16666667E-01  5.00000000E-01
                       2.50000000E-01  4.16666667E-01  5.00000000E-01
                       4.16666667E-01  4.16666667E-01  5.00000000E-01
                      -4.16666667E-01  4.16666667E-01  5.00000000E-01
                      -2.50000000E-01  4.16666667E-01  5.00000000E-01
                      -8.33333333E-02  4.16666667E-01  5.00000000E-01
              kpt21    1.25000000E-01  1.25000000E-01  5.00000000E-01
                       3.75000000E-01  1.25000000E-01  5.00000000E-01
                      -3.75000000E-01  1.25000000E-01  5.00000000E-01
                      -1.25000000E-01  1.25000000E-01  5.00000000E-01
                       1.25000000E-01  3.75000000E-01  5.00000000E-01
                       3.75000000E-01  3.75000000E-01  5.00000000E-01
                      -3.75000000E-01  3.75000000E-01  5.00000000E-01
                      -1.25000000E-01  3.75000000E-01  5.00000000E-01
              kpt22    8.33333333E-02  8.33333333E-02  5.00000000E-01
                       2.50000000E-01  8.33333333E-02  5.00000000E-01
                       4.16666667E-01  8.33333333E-02  5.00000000E-01
                      -4.16666667E-01  8.33333333E-02  5.00000000E-01
                      -2.50000000E-01  8.33333333E-02  5.00000000E-01
                      -8.33333333E-02  8.33333333E-02  5.00000000E-01
                       8.33333333E-02  2.50000000E-01  5.00000000E-01
                       2.50000000E-01  2.50000000E-01  5.00000000E-01
                       4.16666667E-01  2.50000000E-01  5.00000000E-01
                      -4.16666667E-01  2.50000000E-01  5.00000000E-01
                      -2.50000000E-01  2.50000000E-01  5.00000000E-01
                      -8.33333333E-02  2.50000000E-01  5.00000000E-01
                       8.33333333E-02  4.16666667E-01  5.00000000E-01
                       2.50000000E-01  4.16666667E-01  5.00000000E-01
                       4.16666667E-01  4.16666667E-01  5.00000000E-01
                      -4.16666667E-01  4.16666667E-01  5.00000000E-01
                      -2.50000000E-01  4.16666667E-01  5.00000000E-01
                      -8.33333333E-02  4.16666667E-01  5.00000000E-01
         kptrlatt11      4    0    0      0    4    0      0    0    1
         kptrlatt12      6    0    0      0    6    0      0    0    1
         kptrlatt21      4    0    0      0    4    0      0    0    1
         kptrlatt22      6    0    0      0    6    0      0    0    1
          kptrlen11    2.38876501E+01
          kptrlen12    3.58314752E+01
          kptrlen21    2.38876501E+01
          kptrlen22    3.58314752E+01
P           mkmem           1
            natom           3
            nband11        14
            nband12        14
            nband21        14
            nband22        14
           ndtset           4
            ngfft11        18      18     108
            ngfft12        18      18     108
            ngfft21        27      27     160
            ngfft22        27      27     160
             nkpt11         8
             nkpt12        18
             nkpt21         8
             nkpt22        18
            nstep          20
             nsym           1
           ntypat           2
              occ11    2.000000  2.000000  2.000000  2.000000  2.000000  2.000000
                       2.000000  2.000000  2.000000  2.000000  2.000000  2.000000
                       2.000000  0.000000
              occ12    2.000000  2.000000  2.000000  2.000000  2.000000  2.000000
                       2.000000  2.000000  2.000000  2.000000  2.000000  2.000000
                       2.000000  0.000000
              occ21    2.000000  2.000000  2.000000  2.000000  2.000000  2.000000
                       2.000000  2.000000  2.000000  2.000000  2.000000  2.000000
                       2.000000  0.000000
              occ22    2.000000  2.000000  2.000000  2.000000  2.000000  2.000000
                       2.000000  2.000000  2.000000  2.000000  2.000000  2.000000
                       2.000000  0.000000
            rprim      5.0000000000E-01 -8.6602540378E-01  0.0000000000E+00
                       5.0000000000E-01  8.6602540378E-01  0.0000000000E+00
                       0.0000000000E+00  0.0000000000E+00  1.0000000000E+00
           shiftk      5.00000000E-01  5.00000000E-01  5.00000000E-01
          spgroup           1
           toldfe      1.00000000E-10 Hartree
            typat      1  2  2
              wtk11      0.12500    0.12500    0.12500    0.12500    0.12500    0.12500
                         0.12500    0.12500
              wtk12      0.05556    0.05556    0.05556    0.05556    0.05556    0.05556
                         0.05556    0.05556    0.05556    0.05556    0.05556    0.05556
                         0.05556    0.05556    0.05556    0.05556    0.05556    0.05556
              wtk21      0.12500    0.12500    0.12500    0.12500    0.12500    0.12500
                         0.12500    0.12500
              wtk22      0.05556    0.05556    0.05556    0.05556    0.05556    0.05556
                         0.05556    0.05556    0.05556    0.05556    0.05556    0.05556
                         0.05556    0.05556    0.05556    0.05556    0.05556    0.05556
           xangst      1.5801000000E+00  9.1227116034E-01  0.0000000000E+00
                       1.5801000000E+00 -9.1227116034E-01 -1.5850000000E+00
                       1.5801000000E+00 -9.1227116034E-01  1.5850000000E+00
            xcart      2.9859562626E+00  1.7239426520E+00  0.0000000000E+00
                       2.9859562626E+00 -1.7239426520E+00 -2.9952159206E+00
                       2.9859562626E+00 -1.7239426520E+00  2.9952159206E+00
             xred      3.3333333333E-01  6.6666666667E-01  0.0000000000E+00
                       6.6666666667E-01  3.3333333333E-01 -7.9250000000E-02
                       6.6666666667E-01  3.3333333333E-01  7.9250000000E-02
            znucl       42.00000   16.00000

 chkinp: Checking input parameters for consistency, jdtset=  11.

[...]

 chkinp: Checking input parameters for consistency, jdtset=  22.

== DATASET 11 ==================================================================
-   mpi_nproc: 80, omp_nthreads: -1 (-1 if OMP is not activated)
-    --> not optimal distribution: autoparal keyword recommended in input file <--

--- !DatasetInfo
iteration_state: {dtset: 11, }
dimensions: {natom: 3, nkpt: 8, mband: 14, nsppol: 1, nspinor: 1, nspden: 1, mpw: 1770, }
cutoff_energies: {ecut:  10.0, pawecutdg:  -1.0, }
electrons: {nelect:   2.60000000E+01, charge:   0.00000000E+00, occopt:   1.00000000E+00, tsmear:   1.00000000E-02, }
meta: {optdriver: 0, ionmov: 0, optcell: 0, iscf: 7, paral_kgb: 0, }
...

 Real(R)+Recip(G) space primitive vectors, cartesian coordinates (Bohr,Bohr^-1):
 R(1)=  2.9859563 -5.1718280  0.0000000  G(1)=  0.1674505 -0.0966776  0.0000000
 R(2)=  2.9859563  5.1718280  0.0000000  G(2)=  0.1674505  0.0966776  0.0000000
 R(3)=  0.0000000  0.0000000 37.7945227  G(3)=  0.0000000  0.0000000  0.0264589
 Unit cell volume ucvol=  1.1673104E+03 bohr^3
 Angles (23,13,12)=  9.00000000E+01  9.00000000E+01  1.20000000E+02 degrees

[...]
 R(1)=  2.9859563 -5.1718280  0.0000000  G(1)=  0.1674505 -0.0966776  0.0000000
 R(2)=  2.9859563  5.1718280  0.0000000  G(2)=  0.1674505  0.0966776  0.0000000
 R(3)=  0.0000000  0.0000000 37.7945227  G(3)=  0.0000000  0.0000000  0.0264589
 Unit cell volume ucvol=  1.1673104E+03 bohr^3
 Angles (23,13,12)=  9.00000000E+01  9.00000000E+01  1.20000000E+02 degrees

 getcut: wavevector=  0.0000  0.0000  0.0000  ngfft=  27  27 160
         ecut(hartree)=     20.000   => boxcut(ratio)=   2.10286

_setup2: Arith. and geom. avg. npw (full set) are    4986.778    4986.682

--- !BeginCycle
iteration_state: {dtset: 22, }
solver: {iscf: 7, nstep: 20, nline: 4, wfoptalg: 0, }
tolerances: {toldfe: 1.00E-10, }
...

     iter   Etot(hartree)      deltaE(h)  residm     vres2
 ETOT  1  -91.702412803492    -9.170E+01 8.274E-02 3.197E+03
 ETOT  2  -89.262370869744     2.440E+00 3.432E-02 2.526E+04
 ETOT  3  -92.273578788820    -3.011E+00 3.147E-02 4.090E+02
 ETOT  4  -92.293262890734    -1.968E-02 3.043E-02 2.897E+02
 ETOT  5  -92.299953247910    -6.690E-03 1.248E-03 1.846E+02
 ETOT  6  -92.301980931702    -2.028E-03 1.192E-03 1.436E+02
 ETOT  7  -92.303278333376    -1.297E-03 5.842E-04 1.144E+02
 ETOT  8  -92.304488143978    -1.210E-03 7.722E-04 8.222E+01
 ETOT  9  -92.305573800289    -1.086E-03 4.045E-04 4.727E+01
 ETOT 10  -92.305820488966    -2.467E-04 5.466E-04 3.625E+01
 ETOT 11  -92.305962150287    -1.417E-04 2.565E-04 2.621E+01
 ETOT 12  -92.305941212739     2.094E-05 3.448E-04 2.615E+01
 ETOT 13  -92.306010432293    -6.922E-05 1.548E-04 1.831E+01
 ETOT 14  -92.306011646633    -1.214E-06 2.079E-04 1.766E+01
 ETOT 15  -92.306006600429     5.046E-06 1.311E-04 1.713E+01
 ETOT 16  -92.306013324163    -6.724E-06 1.923E-04 1.586E+01
 ETOT 17  -92.306017707630    -4.383E-06 1.788E-04 1.380E+01
 ETOT 18  -92.306021667390    -3.960E-06 2.519E-04 1.203E+01
 ETOT 19  -92.306036625145    -1.496E-05 2.259E-04 8.191E+00
 ETOT 20  -92.306035146030     1.479E-06 3.101E-04 8.367E+00

[...]

 scprqt:  WARNING -
  nstep=   20 was not enough SCF cycles to converge;
  maximum energy difference=  1.479E-06 exceeds toldfe=  1.000E-10

--- !ResultsGS
iteration_state: {dtset: 22, }
comment   : Summary of ground state results
lattice_vectors:
- [  2.9859563,  -5.1718280,   0.0000000, ]
- [  2.9859563,   5.1718280,   0.0000000, ]
- [  0.0000000,   0.0000000,  37.7945227, ]
lattice_lengths: [   5.97191,    5.97191,   37.79452, ]
lattice_angles: [ 90.000,  90.000, 120.000, ] # degrees, (23, 13, 12)
lattice_volume:   1.1673104E+03
convergence: {deltae:  1.479E-06, res2:  8.367E+00, residm:  3.101E-04, diffor: null, }
etotal    :  -9.23060351E+01
entropy   :   0.00000000E+00
fermie    :  -7.65300473E-02
cartesian_stress_tensor: # hartree/bohr^3
- [  2.20163816E-04,   7.11789859E-09,   4.27359200E-10, ]
- [  7.11789859E-09,   2.19667045E-04,   1.26076398E-09, ]
- [  4.27359200E-10,   1.26076398E-09,   2.48446836E-04, ]
pressure_GPa:  -6.7499E+00
xred      :
- [  3.3333E-01,   6.6667E-01,   0.0000E+00, Mo]
- [  6.6667E-01,   3.3333E-01,  -7.9250E-02,  S]
- [  6.6667E-01,   3.3333E-01,   7.9250E-02,  S]
cartesian_forces: # hartree/bohr
- [  4.41306300E-07,   5.73752689E-05,  -5.12119589E-07, ]
- [ -1.97520766E-07,  -2.87412160E-05,   5.34359956E-03, ]
- [ -2.43785534E-07,  -2.86340529E-05,  -5.34308744E-03, ]
force_length_stats: {min:   5.73792514E-05, max:   5.34367686E-03, mean:   3.58140676E-03, }
...

 Integrated electronic density in atomic spheres:
 Atom  Sphere_radius  Integrated_density
    1        2.00000         10.51435609
    2        2.00000          3.91783513
    3        2.00000          3.91782567

 ----iterations are completed or convergence reached----

 Mean square residual over all n,k,spin=   17.639E-07; max=  31.014E-05
 reduced coordinates (array xred) for    3 atoms
       0.333333333333      0.666666666667      0.000000000000
       0.666666666667      0.333333333333     -0.079250000000
       0.666666666667      0.333333333333      0.079250000000
 rms dE/dt=  9.5200E-02; max dE/dt=  2.0193E-01; dE/dt below (all hartree)
    1       0.000295581937     -0.000297835887      0.000012164682
    2      -0.000147890197      0.000149451267     -0.201965985346
    3      -0.000147197824      0.000149035182      0.201932248764

 cartesian coordinates (angstrom) at end:
    1      1.58010000000000     0.91227116034185     0.00000000000000
    2      1.58010000000000    -0.91227116034185    -1.58500000000000
    3      1.58010000000000    -0.91227116034185     1.58500000000000

 cartesian forces (hartree/bohr) at end:
    1      0.00000044130630     0.00005737526888    -0.00000051211959
    2     -0.00000019752077    -0.00002874121602     0.00534359956182
    3     -0.00000024378553    -0.00002863405286    -0.00534308744223
 frms,max,avg= 2.5189852E-03 5.3435996E-03  -6.388E-08 -5.048E-09  1.903E-07 h/b

 cartesian forces (eV/Angstrom) at end:
    1      0.00002269288047     0.00295035470193    -0.00002633424587
    2     -0.00001015692532    -0.00147793262616     0.27477891434168
    3     -0.00001253595515    -0.00147242207577    -0.27475258009580
 frms,max,avg= 1.2953142E-01 2.7477891E-01  -3.285E-06 -2.596E-07  9.783E-06 e/A
 length scales=  5.971912525145  5.971912525145 37.794522657713 bohr
              =  3.160200000000  3.160200000000 20.000000000000 angstroms
 prteigrs : about to open file mos2_exp_relx_simpleo_DS22_EIG
 Fermi (or HOMO) energy (hartree) =  -0.07653   Average Vxc (hartree)=  -0.14561
 Eigenvalues (hartree) for nkpt=  18  k points:
 kpt#   1, nband= 14, wtk=  0.05556, kpt=  0.0833  0.0833  0.5000 (reduced coord)
  -2.30425   -1.35484   -1.34932   -1.34704   -0.57665   -0.53752   -0.26365   -0.18432
  -0.16970   -0.15042   -0.14214   -0.10600   -0.08105    0.01624
 prteigrs : prtvol=0 or 1, do not print more k-points.

--- !EnergyTerms
iteration_state     : {dtset: 22, }
comment             : Components of total free energy in Hartree
kinetic             :  2.98202979232757E+01
hartree             :  2.81600972348048E+02
xc                  : -1.65947570665891E+01
Ewald energy        :  2.05366925133136E+02
psp_core            :  7.58198985105847E-01
local_psp           : -6.04929173261016E+02
non_local_psp       :  1.16715007920097E+01
total_energy        : -9.23060351460303E+01
total_energy_eV     : -2.51177495495328E+03
band_energy         : -1.72996149020565E+01
...

 Cartesian components of stress tensor (hartree/bohr^3)
  sigma(1 1)=  2.20163816E-04  sigma(3 2)=  1.26076398E-09
  sigma(2 2)=  2.19667045E-04  sigma(3 1)=  4.27359200E-10
  sigma(3 3)=  2.48446836E-04  sigma(2 1)=  7.11789859E-09

-Cartesian components of stress tensor (GPa)         [Pressure= -6.7499E+00 GPa]
- sigma(1 1)=  6.47744200E+00  sigma(3 2)=  3.70929505E-05
- sigma(2 2)=  6.46282650E+00  sigma(3 1)=  1.25733397E-05
- sigma(3 3)=  7.30955705E+00  sigma(2 1)=  2.09415771E-04

== END DATASET(S) ==============================================================

 -outvars: echo values of variables after computation  --------
            acell      5.9719125251E+00  5.9719125251E+00  3.7794522658E+01 Bohr
              amu      9.59400000E+01  3.20660000E+01
      chksymbreak           0
             ecut11    1.00000000E+01 Hartree
             ecut12    1.00000000E+01 Hartree
             ecut21    2.00000000E+01 Hartree
             ecut22    2.00000000E+01 Hartree
           etotal11   -9.1609420858E+01
           etotal12   -9.1607893092E+01
           etotal21   -9.2305196847E+01
           etotal22   -9.2306035146E+01
            fcart11   -2.2095516785E-08  1.4005383608E-03  5.2219906575E-07
                       1.5238041815E-08 -7.0023713597E-04 -1.8882694903E-03
                       6.8574749699E-09 -7.0030122479E-04  1.8877472912E-03
            fcart12   -6.5259478484E-09 -8.2833893403E-05 -5.0220271410E-06
                       6.6579479345E-09  4.1409009846E-05 -1.4453624866E-03
                      -1.3200008604E-10  4.1424883557E-05  1.4503845137E-03
            fcart21   -1.3640183146E-07  7.6550182622E-04  3.3502197224E-06
                       4.5256968287E-08 -3.8277123069E-04  4.4922739003E-03
                       9.1144863175E-08 -3.8273059554E-04 -4.4956241201E-03
            fcart22    4.4130630047E-07  5.7375268878E-05 -5.1211958910E-07
                      -1.9752076610E-07 -2.8741216015E-05  5.3435995618E-03
                      -2.4378553437E-07 -2.8634052863E-05 -5.3430874422E-03
-          fftalg         512
              ixc          11
           jdtset       11   12   21   22
              kpt11    1.25000000E-01  1.25000000E-01  5.00000000E-01
                       3.75000000E-01  1.25000000E-01  5.00000000E-01
                      -3.75000000E-01  1.25000000E-01  5.00000000E-01
                      -1.25000000E-01  1.25000000E-01  5.00000000E-01
                       1.25000000E-01  3.75000000E-01  5.00000000E-01
                       3.75000000E-01  3.75000000E-01  5.00000000E-01
                      -3.75000000E-01  3.75000000E-01  5.00000000E-01
                      -1.25000000E-01  3.75000000E-01  5.00000000E-01
              kpt12    8.33333333E-02  8.33333333E-02  5.00000000E-01
                       2.50000000E-01  8.33333333E-02  5.00000000E-01
                       4.16666667E-01  8.33333333E-02  5.00000000E-01
                      -4.16666667E-01  8.33333333E-02  5.00000000E-01
                      -2.50000000E-01  8.33333333E-02  5.00000000E-01
                      -8.33333333E-02  8.33333333E-02  5.00000000E-01
                       8.33333333E-02  2.50000000E-01  5.00000000E-01
                       2.50000000E-01  2.50000000E-01  5.00000000E-01
                       4.16666667E-01  2.50000000E-01  5.00000000E-01
                      -4.16666667E-01  2.50000000E-01  5.00000000E-01
                      -2.50000000E-01  2.50000000E-01  5.00000000E-01
                      -8.33333333E-02  2.50000000E-01  5.00000000E-01
                       8.33333333E-02  4.16666667E-01  5.00000000E-01
                       2.50000000E-01  4.16666667E-01  5.00000000E-01
                       4.16666667E-01  4.16666667E-01  5.00000000E-01
                      -4.16666667E-01  4.16666667E-01  5.00000000E-01
                      -2.50000000E-01  4.16666667E-01  5.00000000E-01
                      -8.33333333E-02  4.16666667E-01  5.00000000E-01
              kpt21    1.25000000E-01  1.25000000E-01  5.00000000E-01
                       3.75000000E-01  1.25000000E-01  5.00000000E-01
                      -3.75000000E-01  1.25000000E-01  5.00000000E-01
                      -1.25000000E-01  1.25000000E-01  5.00000000E-01
                       1.25000000E-01  3.75000000E-01  5.00000000E-01
                       3.75000000E-01  3.75000000E-01  5.00000000E-01
                      -3.75000000E-01  3.75000000E-01  5.00000000E-01
                      -1.25000000E-01  3.75000000E-01  5.00000000E-01
              kpt22    8.33333333E-02  8.33333333E-02  5.00000000E-01
                       2.50000000E-01  8.33333333E-02  5.00000000E-01
                       4.16666667E-01  8.33333333E-02  5.00000000E-01
                      -4.16666667E-01  8.33333333E-02  5.00000000E-01
                      -2.50000000E-01  8.33333333E-02  5.00000000E-01
                      -8.33333333E-02  8.33333333E-02  5.00000000E-01
                       8.33333333E-02  2.50000000E-01  5.00000000E-01
                       2.50000000E-01  2.50000000E-01  5.00000000E-01
                       4.16666667E-01  2.50000000E-01  5.00000000E-01
                      -4.16666667E-01  2.50000000E-01  5.00000000E-01
                      -2.50000000E-01  2.50000000E-01  5.00000000E-01
                      -8.33333333E-02  2.50000000E-01  5.00000000E-01
                       8.33333333E-02  4.16666667E-01  5.00000000E-01
                       2.50000000E-01  4.16666667E-01  5.00000000E-01
                       4.16666667E-01  4.16666667E-01  5.00000000E-01
                      -4.16666667E-01  4.16666667E-01  5.00000000E-01
                      -2.50000000E-01  4.16666667E-01  5.00000000E-01
                      -8.33333333E-02  4.16666667E-01  5.00000000E-01
         kptrlatt11      4    0    0      0    4    0      0    0    1
         kptrlatt12      6    0    0      0    6    0      0    0    1
         kptrlatt21      4    0    0      0    4    0      0    0    1
         kptrlatt22      6    0    0      0    6    0      0    0    1
          kptrlen11    2.38876501E+01
          kptrlen12    3.58314752E+01
          kptrlen21    2.38876501E+01
          kptrlen22    3.58314752E+01
P           mkmem           1
            natom           3
            nband11        14
            nband12        14
            nband21        14
            nband22        14
           ndtset           4
            ngfft11        18      18     108
            ngfft12        18      18     108
            ngfft21        27      27     160
            ngfft22        27      27     160
             nkpt11         8
             nkpt12        18
             nkpt21         8
             nkpt22        18
            nstep          20
             nsym           1
           ntypat           2
              occ11    2.000000  2.000000  2.000000  2.000000  2.000000  2.000000
                       2.000000  2.000000  2.000000  2.000000  2.000000  2.000000
                       2.000000  0.000000
              occ12    2.000000  2.000000  2.000000  2.000000  2.000000  2.000000
                       2.000000  2.000000  2.000000  2.000000  2.000000  2.000000
                       2.000000  0.000000
              occ21    2.000000  2.000000  2.000000  2.000000  2.000000  2.000000
                       2.000000  2.000000  2.000000  2.000000  2.000000  2.000000
                       2.000000  0.000000
              occ22    2.000000  2.000000  2.000000  2.000000  2.000000  2.000000
                       2.000000  2.000000  2.000000  2.000000  2.000000  2.000000
                       2.000000  0.000000
            rprim      5.0000000000E-01 -8.6602540378E-01  0.0000000000E+00
                       5.0000000000E-01  8.6602540378E-01  0.0000000000E+00
                       0.0000000000E+00  0.0000000000E+00  1.0000000000E+00
           shiftk      5.00000000E-01  5.00000000E-01  5.00000000E-01
          spgroup           1
           strten11    1.0094132102E-03  9.9149879588E-04  1.0177920109E-03
                      -3.8889986805E-11  1.0345706037E-10  1.5409337577E-10
           strten12    9.9999567240E-04  1.0066104345E-03  1.0235999429E-03
                      -1.6356875063E-11  4.8190781869E-12 -1.6511519029E-11
           strten21    2.2277767818E-04  2.1539734206E-04  2.5347629758E-04
                       1.4751810665E-10 -2.6833954138E-10 -1.3067089091E-09
           strten22    2.2016381574E-04  2.1966704495E-04  2.4844683627E-04
                       1.2607639756E-09  4.2735920040E-10  7.1178985857E-09
           toldfe      1.00000000E-10 Hartree
            typat      1  2  2
              wtk11      0.12500    0.12500    0.12500    0.12500    0.12500    0.12500
                         0.12500    0.12500
              wtk12      0.05556    0.05556    0.05556    0.05556    0.05556    0.05556
                         0.05556    0.05556    0.05556    0.05556    0.05556    0.05556
                         0.05556    0.05556    0.05556    0.05556    0.05556    0.05556
              wtk21      0.12500    0.12500    0.12500    0.12500    0.12500    0.12500
                         0.12500    0.12500
              wtk22      0.05556    0.05556    0.05556    0.05556    0.05556    0.05556
                         0.05556    0.05556    0.05556    0.05556    0.05556    0.05556
                         0.05556    0.05556    0.05556    0.05556    0.05556    0.05556
           xangst      1.5801000000E+00  9.1227116034E-01  0.0000000000E+00
                       1.5801000000E+00 -9.1227116034E-01 -1.5850000000E+00
                       1.5801000000E+00 -9.1227116034E-01  1.5850000000E+00
            xcart      2.9859562626E+00  1.7239426520E+00  0.0000000000E+00
                       2.9859562626E+00 -1.7239426520E+00 -2.9952159206E+00
                       2.9859562626E+00 -1.7239426520E+00  2.9952159206E+00
             xred      3.3333333333E-01  6.6666666667E-01  0.0000000000E+00
                       6.6666666667E-01  3.3333333333E-01 -7.9250000000E-02
                       6.6666666667E-01  3.3333333333E-01  7.9250000000E-02
            znucl       42.00000   16.00000

- Timing analysis has been suppressed with timopt=0

 Suggested references for the acknowledgment of ABINIT usage.

 Calculation completed.
.Delivered   3 WARNINGs and   0 COMMENTs to log file.